LAMMPS (16 Mar 2018)
####################################################
# Preprocessing Li2SO4 in water
#################### SETTING UP ####################
units real
dimension 3
newton on
boundary p p p
atom_style full

#################### VARIABLES ####################
variable Temp equal 298.15    # Temperature in K
variable Pres equal 1    # Pressure in atm.

variable RandomSeed equal 18 # The random seed for velocity
variable tstep equal 2 # timestep in fs

#################### NPT ####################
variable Ninptpre equal 10000 # Pre-initialize the NPT ensemble (very small timesteps)
variable Ninpt equal 5000000  # Initialize the NPT ensemble
variable Npnpt equal 5000000  # Production in the NPT ensemble (volume)

#################### NVT ####################
variable Ninvtpre equal 10000  # Pre-initialize the NVT ensemble (very small timesteps)
variable Ninvt equal 2500000   # Initialize the NVT ensemble 2.5Mstep
variable Nrun1 equal 250000  # production in the NVT ensemble (Transport properties)
variable Nrun2 equal 1000000  # production in the NVT ensemble (Transport properties)
variable Nrun3 equal 2500000  # production in the NVT ensemble (Transport properties)
variable Nrun4 equal 5000000  # production in the NVT ensemble (Transport properties)

variable Nf equal 100000      # Nfreq (fix ave/time and thermo)
variable Ne equal  1          # Nevery (fix ave/time)
variable Nr equal ${Nf}/${Ne} # Nrepeat (fix ave/time)
variable Nr equal 100000/${Ne} 
variable Nr equal 100000/1 
variable Nd equal ${Nf} 	  # Frequency of outputting positions of atoms in the NVT ensemble
variable Nd equal 100000 	  
variable NBR equal ${Npnpt}/100 # Block averaging for density (NPT)
variable NBR equal 5000000/100 

variable nb equal 10          # Number of blocks (fix ordern)
variable nbe equal 20         # Number of block elements (fix ordern)
variable Nvisc equal 5        # Nevery for viscosity (fix ordern: sample data at (Nvisc*2))
variable Ncond equal 5        # Nevery for Tconductivity (fix ordern: sample data at (Ncond*2))
variable Ndiff equal 1000     # Nevery for diffusivity (fix ordern: sample data at (Ndiff))
variable Nwrit equal 100000   # Nwrite for transport properties (fix ordern: write every (Nwrit))

variable Nrdfe equal 1000     # Nevery for RDF (fix ave/time)
variable Nrdfw equal 1000     # Nwrite for RDF (compute rdf/ext: write every (Nrdfw*Nrdfe))
variable binnum equal 2000    # Number of bins for RDF

#################### ATOM DEFINITION and FORCEFIELD ####################
read_data ./data.lmp                     # read the positions
  orthogonal box = (0 0 0) to (25.8482 25.8482 25.8482)
  2 by 2 by 3 MPI processor grid
  reading atoms ...
  1572 atoms
  scanning bonds ...
  2 = max bonds/atom
  scanning angles ...
  1 = max angles/atom
  reading bonds ...
  1000 bonds
  reading angles ...
  500 angles
  2 = max # of 1-2 neighbors
  1 = max # of 1-3 neighbors
  1 = max # of 1-4 neighbors
  2 = max # of special neighbors
include ./forcefield.data                # read the force field
#--------INTERMOLECULAR POTENTIAL -------------------#
# --------Developed for MadridT KCl + TIP4P/2005-----#

mass 1 15.9994	# Ow
mass 2 1.008	# Hw
mass 3 39.0983	# K
mass 4 35.453	# Cl


pair_style lj/cut/tip4p/long 1 2 1 1 0.1546 10.0
kspace_style pppm/tip4p 1.0e-5
pair_modify mix arithmetic tail yes # ATC and Lorentz-Berthelot combining rules

#-----------------Combinations----------------------------
# atomtype atomtype epsilon sigma

pair_coeff 1 1 0.185200 3.15890    # Ow-Ow
pair_coeff 1 2 0.000000 0.00000    # Ow-Hw
pair_coeff 1 3 0.334711 2.89540    # Ow-K
pair_coeff 1 4 0.014814 4.07631    # Ow-Cl

pair_coeff 2 2 0.000000 0.00000    # Hw-Hw
pair_coeff 2 3 0.000000 0.00000    # Hw-K
pair_coeff 2 4 0.000000 0.00000    # Hw-Cl

pair_coeff 3 3 0.474603 3.41700    # K-K
pair_coeff 3 4 0.334608 3.41700    # K-Cl

pair_coeff 4 4 0.018385 4.69906    # Cl-Cl

bond_style  harmonic
bond_coeff 1 2000 0.9572           # Ow-Hw

angle_style harmonic
angle_coeff 1 200 104.52           # H-Ow-H

#dihedral_style none
#improper_style none

set type 1 charge -1.1128          # O
  500 settings made for charge
set type 2 charge +0.5564          # OH
  1000 settings made for charge
set type 3 charge +0.7500          # K
  36 settings made for charge
set type 4 charge -0.7500          # Cl
  36 settings made for charge

#################### INITIALIZATION ####################
group wat type 1		# O water
500 atoms in group wat
group K type 3			# Potasium ion
36 atoms in group K
group Cl type 4			# Chlorine ion
36 atoms in group Cl

# neigbor lists
neighbor 2.0 bin
neigh_modify every 1 delay 0 check yes

# velocity-Verlet integrator
run_style verlet

# initializing velocities
velocity all create ${Temp} ${RandomSeed}
velocity all create 298.15 ${RandomSeed}
velocity all create 298.15 18

# rate of writing thermal properties to the log file
thermo_style custom step density temp press etotal
thermo_modify flush yes
thermo ${Nf}
thermo 100000

#################### 2) Initialize the NPT ensemble ####################
######### Go to the correct temperature now ant initiate that ##########
fix constrain all shake 1.0e-6 1000 0 b 1 a 1
  0 = # of size 2 clusters
  0 = # of size 3 clusters
  0 = # of size 4 clusters
  500 = # of frozen angles
fix integrate all npt temp ${Temp} ${Temp} 10.0 iso ${Pres} ${Pres} 100.0
fix integrate all npt temp 298.15 ${Temp} 10.0 iso ${Pres} ${Pres} 100.0
fix integrate all npt temp 298.15 298.15 10.0 iso ${Pres} ${Pres} 100.0
fix integrate all npt temp 298.15 298.15 10.0 iso 1 ${Pres} 100.0
fix integrate all npt temp 298.15 298.15 10.0 iso 1 1 100.0


# Initializing the whole system with very small timesteps in the NPT ensemble
timestep 0.001
run ${Ninptpre}
run 10000
PPPM initialization ...
  extracting TIP4P info from pair style
  using 12-bit tables for long-range coulomb (../kspace.cpp:321)
  G vector (1/distance) = 0.309797
  grid = 24 24 24
  stencil order = 5
  estimated absolute RMS force accuracy = 0.00375155
  estimated relative force accuracy = 1.12977e-05
  using double precision FFTs
  3d grid and FFT values/proc = 5415 1152
Neighbor list info ...
  update every 1 steps, delay 0 steps, check yes
  max neighbors/atom: 2000, page size: 100000
  master list distance cutoff = 12.3092
  ghost atom cutoff = 12.3092
  binsize = 6.1546, bins = 5 5 5
  1 neighbor lists, perpetual/occasional/extra = 1 0 0
  (1) pair lj/cut/tip4p/long, perpetual
      attributes: half, newton on
      pair build: half/bin/newton
      stencil: half/bin/3d/newton
      bin: standard
Per MPI rank memory allocation (min/avg/max) = 8.286 | 8.289 | 8.293 Mbytes
Step Density Temp Press TotEng 
       0    1.1241608    437.34234    3287235.8    2311.9202 
   10000    1.0212055    1119.0847    14847.117    383.69472 
Loop time of 39.8458 on 12 procs for 10000 steps with 1572 atoms

Performance: 0.022 ns/day, 1106.828 hours/ns, 250.967 timesteps/s
93.5% CPU use with 12 MPI tasks x no OpenMP threads

MPI task timing breakdown:
Section |  min time  |  avg time  |  max time  |%varavg| %total
---------------------------------------------------------------
Pair    | 21.617     | 23.365     | 26.431     |  30.4 | 58.64
Bond    | 0.0058774  | 0.0064244  | 0.0070637  |   0.4 |  0.02
Kspace  | 7.2471     | 10.309     | 12.056     |  45.8 | 25.87
Neigh   | 0.0017793  | 0.0017904  | 0.0018107  |   0.0 |  0.00
Comm    | 1.2121     | 1.2314     | 1.2536     |   1.1 |  3.09
Output  | 5.798e-05  | 8.0734e-05 | 0.00030984 |   0.0 |  0.00
Modify  | 4.4369     | 4.7157     | 4.7804     |   3.9 | 11.83
Other   |            | 0.2164     |            |       |  0.54

Nlocal:    131 ave 140 max 124 min
Histogram: 2 2 0 3 1 0 0 1 2 1
Nghost:    4116.5 ave 4181 max 4015 min
Histogram: 2 0 2 0 0 0 0 3 3 2
Neighs:    44043.1 ave 48404 max 40729 min
Histogram: 2 1 1 3 0 2 0 1 0 2

Total # of neighbors = 528517
Ave neighs/atom = 336.207
Ave special neighs/atom = 1.9084
Neighbor list builds = 1
Dangerous builds = 0
timestep 0.01
run ${Ninptpre}
run 10000
PPPM initialization ...
  extracting TIP4P info from pair style
  using 12-bit tables for long-range coulomb (../kspace.cpp:321)
  G vector (1/distance) = 0.31043
  grid = 25 25 25
  stencil order = 5
  estimated absolute RMS force accuracy = 0.00343755
  estimated relative force accuracy = 1.03521e-05
  using double precision FFTs
  3d grid and FFT values/proc = 6400 1875
Per MPI rank memory allocation (min/avg/max) = 8.324 | 8.349 | 8.395 Mbytes
Step Density Temp Press TotEng 
   10000    1.0212055    1119.0847    1450704.4    383.69193 
   20000    1.1608356     310.9265   -1258.1813   -7241.7043 
Loop time of 41.9198 on 12 procs for 10000 steps with 1572 atoms

Performance: 0.206 ns/day, 116.444 hours/ns, 238.551 timesteps/s
91.3% CPU use with 12 MPI tasks x no OpenMP threads

MPI task timing breakdown:
Section |  min time  |  avg time  |  max time  |%varavg| %total
---------------------------------------------------------------
Pair    | 21.281     | 22.73      | 25.531     |  25.9 | 54.22
Bond    | 0.0057616  | 0.006595   | 0.0078319  |   0.7 |  0.02
Kspace  | 8.1774     | 10.966     | 12.412     |  37.2 | 26.16
Neigh   | 0.015808   | 0.015852   | 0.015928   |   0.0 |  0.04
Comm    | 1.2441     | 1.2792     | 1.3064     |   1.5 |  3.05
Output  | 6.0737e-05 | 8.3506e-05 | 0.00032279 |   0.0 |  0.00
Modify  | 4.6232     | 5.1316     | 6.7828     |  22.5 | 12.24
Other   |            | 1.791      |            |       |  4.27

Nlocal:    131 ave 136 max 125 min
Histogram: 2 0 1 0 1 1 4 1 0 2
Nghost:    4258.67 ave 4318 max 4177 min
Histogram: 2 0 1 1 0 2 0 1 2 3
Neighs:    47071.2 ave 50578 max 44231 min
Histogram: 2 2 2 0 0 2 0 1 1 2

Total # of neighbors = 564854
Ave neighs/atom = 359.322
Ave special neighs/atom = 1.9084
Neighbor list builds = 9
Dangerous builds = 0
timestep 0.1
run ${Ninptpre}
run 10000
PPPM initialization ...
  extracting TIP4P info from pair style
  using 12-bit tables for long-range coulomb (../kspace.cpp:321)
  G vector (1/distance) = 0.310569
  grid = 24 24 24
  stencil order = 5
  estimated absolute RMS force accuracy = 0.00363381
  estimated relative force accuracy = 1.09431e-05
  using double precision FFTs
  3d grid and FFT values/proc = 5415 1152
Per MPI rank memory allocation (min/avg/max) = 8.286 | 8.29 | 8.293 Mbytes
Step Density Temp Press TotEng 
   20000    1.1608356     310.9265   -26300.092   -7241.7257 
   30000    1.1508786    308.37222   -419.44827   -8247.3265 
Loop time of 42.4214 on 12 procs for 10000 steps with 1572 atoms

Performance: 2.037 ns/day, 11.784 hours/ns, 235.730 timesteps/s
94.5% CPU use with 12 MPI tasks x no OpenMP threads

MPI task timing breakdown:
Section |  min time  |  avg time  |  max time  |%varavg| %total
---------------------------------------------------------------
Pair    | 24.079     | 26.112     | 28.203     |  28.8 | 61.55
Bond    | 0.0057225  | 0.0065789  | 0.0076585  |   0.7 |  0.02
Kspace  | 7.8489     | 9.9389     | 11.984     |  46.7 | 23.43
Neigh   | 0.08439    | 0.084641   | 0.084979   |   0.1 |  0.20
Comm    | 1.2799     | 1.2977     | 1.318      |   0.9 |  3.06
Output  | 6.102e-05  | 8.3309e-05 | 0.00031647 |   0.0 |  0.00
Modify  | 4.4854     | 4.762      | 4.8203     |   3.9 | 11.23
Other   |            | 0.2197     |            |       |  0.52

Nlocal:    131 ave 143 max 124 min
Histogram: 1 1 5 1 1 0 1 1 0 1
Nghost:    4231.75 ave 4263 max 4193 min
Histogram: 2 1 1 0 1 0 1 3 1 2
Neighs:    47768.8 ave 55344 max 42674 min
Histogram: 2 1 2 2 1 1 2 0 0 1

Total # of neighbors = 573226
Ave neighs/atom = 364.648
Ave special neighs/atom = 1.9084
Neighbor list builds = 43
Dangerous builds = 0
timestep 0.2
run ${Ninptpre}
run 10000
PPPM initialization ...
  extracting TIP4P info from pair style
  using 12-bit tables for long-range coulomb (../kspace.cpp:321)
  G vector (1/distance) = 0.310362
  grid = 24 24 24
  stencil order = 5
  estimated absolute RMS force accuracy = 0.00366502
  estimated relative force accuracy = 1.10371e-05
  using double precision FFTs
  3d grid and FFT values/proc = 5415 1152
Per MPI rank memory allocation (min/avg/max) = 8.286 | 8.311 | 8.536 Mbytes
Step Density Temp Press TotEng 
   30000    1.1508786    308.37222    -1306.504   -8247.3269 
   40000    1.1565826    291.97796    55.526496   -8415.5128 
Loop time of 42.8204 on 12 procs for 10000 steps with 1572 atoms

Performance: 4.035 ns/day, 5.947 hours/ns, 233.534 timesteps/s
94.3% CPU use with 12 MPI tasks x no OpenMP threads

MPI task timing breakdown:
Section |  min time  |  avg time  |  max time  |%varavg| %total
---------------------------------------------------------------
Pair    | 23.08      | 26.171     | 28.141     |  32.7 | 61.12
Bond    | 0.0058569  | 0.0066889  | 0.0079535  |   0.7 |  0.02
Kspace  | 8.1841     | 10.149     | 13.241     |  52.5 | 23.70
Neigh   | 0.17347    | 0.17382    | 0.17418    |   0.1 |  0.41
Comm    | 1.3215     | 1.3425     | 1.3675     |   1.1 |  3.14
Output  | 5.9724e-05 | 8.0527e-05 | 0.00029707 |   0.0 |  0.00
Modify  | 4.4842     | 4.7612     | 4.8175     |   3.9 | 11.12
Other   |            | 0.2165     |            |       |  0.51

Nlocal:    131 ave 141 max 119 min
Histogram: 1 1 0 2 2 1 0 2 0 3
Nghost:    4192.5 ave 4242 max 4139 min
Histogram: 2 0 0 2 3 0 1 1 2 1
Neighs:    47581 ave 53824 max 40914 min
Histogram: 1 1 3 0 1 1 1 1 1 2

Total # of neighbors = 570972
Ave neighs/atom = 363.214
Ave special neighs/atom = 1.9084
Neighbor list builds = 88
Dangerous builds = 0
timestep 0.5
run ${Ninptpre}
run 10000
PPPM initialization ...
  extracting TIP4P info from pair style
  using 12-bit tables for long-range coulomb (../kspace.cpp:321)
  G vector (1/distance) = 0.310481
  grid = 24 24 24
  stencil order = 5
  estimated absolute RMS force accuracy = 0.00364707
  estimated relative force accuracy = 1.09831e-05
  using double precision FFTs
  3d grid and FFT values/proc = 5415 1152
Per MPI rank memory allocation (min/avg/max) = 8.286 | 8.332 | 8.536 Mbytes
Step Density Temp Press TotEng 
   40000    1.1565826    291.97796   -2046.1851   -8415.5128 
   50000    1.1637662    288.92944    225.77501   -8352.2386 
Loop time of 43.9723 on 12 procs for 10000 steps with 1572 atoms

Performance: 9.824 ns/day, 2.443 hours/ns, 227.416 timesteps/s
93.7% CPU use with 12 MPI tasks x no OpenMP threads

MPI task timing breakdown:
Section |  min time  |  avg time  |  max time  |%varavg| %total
---------------------------------------------------------------
Pair    | 23.576     | 26.494     | 29.082     |  37.9 | 60.25
Bond    | 0.0060539  | 0.0066974  | 0.0075411  |   0.5 |  0.02
Kspace  | 8.0845     | 10.678     | 13.6       |  59.7 | 24.28
Neigh   | 0.43948    | 0.44033    | 0.44119    |   0.1 |  1.00
Comm    | 1.3334     | 1.3496     | 1.3677     |   0.9 |  3.07
Output  | 5.9739e-05 | 8.148e-05  | 0.00031395 |   0.0 |  0.00
Modify  | 4.5105     | 4.7855     | 4.8398     |   3.8 | 10.88
Other   |            | 0.2176     |            |       |  0.49

Nlocal:    131 ave 137 max 116 min
Histogram: 1 0 0 1 0 0 1 3 3 3
Nghost:    4233.58 ave 4299 max 4182 min
Histogram: 2 0 3 1 2 0 1 2 0 1
Neighs:    47713.2 ave 53314 max 43303 min
Histogram: 2 2 0 1 1 2 2 1 0 1

Total # of neighbors = 572559
Ave neighs/atom = 364.223
Ave special neighs/atom = 1.9084
Neighbor list builds = 219
Dangerous builds = 0
reset_timestep 0

# continuing the initialization with the final value of timestep
unfix integrate
fix integrate all npt temp ${Temp} ${Temp} 100.0 iso ${Pres} ${Pres} 1000.0
fix integrate all npt temp 298.15 ${Temp} 100.0 iso ${Pres} ${Pres} 1000.0
fix integrate all npt temp 298.15 298.15 100.0 iso ${Pres} ${Pres} 1000.0
fix integrate all npt temp 298.15 298.15 100.0 iso 1 ${Pres} 1000.0
fix integrate all npt temp 298.15 298.15 100.0 iso 1 1 1000.0

timestep ${tstep}
timestep 2


run ${Ninpt}
run 5000000
PPPM initialization ...
  extracting TIP4P info from pair style
  using 12-bit tables for long-range coulomb (../kspace.cpp:321)
  G vector (1/distance) = 0.31063
  grid = 24 24 24
  stencil order = 5
  estimated absolute RMS force accuracy = 0.00362472
  estimated relative force accuracy = 1.09157e-05
  using double precision FFTs
  3d grid and FFT values/proc = 5415 1152
Per MPI rank memory allocation (min/avg/max) = 8.291 | 8.435 | 8.541 Mbytes
Step Density Temp Press TotEng 
       0    1.1637662    288.92944   -274.99478   -8352.2385 
  100000    1.1603673    294.83132   -1375.2348   -8461.2095 
  200000    1.1397666    299.94362    698.97544   -8381.7286 
  300000    1.1584995    293.83431   -163.17127   -8476.1863 
  400000    1.1421168    298.35228   -564.65073    -8503.246 
  500000    1.1607439    314.34489   -598.16241   -8312.1989 
  600000    1.1545085    317.54798   -486.41109   -8313.9683 
  700000    1.1731958    302.20626    471.92873   -8378.0592 
  800000     1.167815     301.8887    1017.5423   -8379.3641 
  900000    1.1456039     295.2857    643.12675   -8368.2483 
 1000000    1.1663223    299.37716    381.84261   -8384.6101 
 1100000    1.1408452    292.40919   -430.11252   -8391.7414 
 1200000    1.1479458     299.6621    737.91242   -8371.0736 
 1300000    1.1573137    290.00317   -571.41248   -8410.5513 
 1400000    1.1499196    294.87009    151.84395   -8398.0023 
 1500000    1.1520296    307.73711    339.34847   -8358.4114 
 1600000    1.1643608    299.77489    -76.49483   -8400.1313 
 1700000    1.1643251    294.25801    -84.17254   -8404.4865 
 1800000     1.144365    293.12988    146.60296   -8427.7481 
 1900000    1.1515053    300.47987     -243.805   -8438.1835 
 2000000    1.1311941    298.77018   -585.52689   -8337.3232 
 2100000    1.1713451    307.27034   -394.73554   -8458.9713 
 2200000    1.1394915    285.48276   -533.02894   -8408.6808 
 2300000    1.1385161    297.48837   -506.25152   -8364.3082 
 2400000    1.1587311    305.68777    753.67824   -8417.5067 
 2500000    1.1364147    294.91347      109.579   -8425.0583 
 2600000    1.1560354    301.34682   -877.32867   -8375.5049 
 2700000    1.1498092    301.86405   -904.65027   -8376.1951 
 2800000    1.1599907    304.84632   -248.94003   -8359.1001 
 2900000    1.1583562    301.31163    102.83027   -8435.4649 
 3000000    1.1594623    309.11364    358.68529   -8382.7117 
 3100000    1.1410692    310.21717   -529.16906   -8368.8539 
 3200000    1.1457766    293.93302   -920.33525   -8370.5267 
 3300000    1.1597096    284.90837     7.698812   -8443.2078 
 3400000    1.1511131    308.53404   -590.23018   -8359.2526 
 3500000    1.1438218    306.96935   -211.25153   -8410.0966 
 3600000    1.1511489     304.8277   -40.421094   -8325.1702 
 3700000    1.1444092    305.90091   -405.59628    -8397.218 
 3800000     1.150278    286.88136   -394.56413     -8391.62 
 3900000    1.1339414    309.50541   -705.14134   -8319.0464 
 4000000    1.1518785    292.31357    160.64832   -8460.3337 
 4100000    1.1599972    297.77915    -376.1634   -8379.7941 
 4200000    1.1609854    284.36055    709.11533   -8416.0847 
 4300000    1.1383672     302.5511   -744.78849   -8410.5989 
 4400000     1.151159    301.67641    523.86926   -8356.7043 
 4500000    1.1568235     288.3515    667.76138   -8410.9784 
 4600000    1.1551735    306.26704    865.29358   -8332.2196 
 4700000    1.1438535    297.74395   -1054.1418   -8442.4142 
 4800000    1.1641817    285.29451    547.84124   -8469.8005 
 4900000    1.1568159    296.10736   -56.839386   -8382.5728 
 5000000    1.1433076    312.83883    183.41046   -8265.0033 
Loop time of 22939.1 on 12 procs for 5000000 steps with 1572 atoms

Performance: 37.665 ns/day, 0.637 hours/ns, 217.968 timesteps/s
93.7% CPU use with 12 MPI tasks x no OpenMP threads

MPI task timing breakdown:
Section |  min time  |  avg time  |  max time  |%varavg| %total
---------------------------------------------------------------
Pair    | 12537      | 13431      | 14314      | 523.2 | 58.55
Bond    | 2.9566     | 3.363      | 3.9972     |  15.2 |  0.01
Kspace  | 4531       | 5413.8     | 6305.8     | 824.9 | 23.60
Neigh   | 817.54     | 818.33     | 819.09     |   1.6 |  3.57
Comm    | 739.15     | 746.52     | 755.86     |  18.1 |  3.25
Output  | 0.003056   | 0.0041891  | 0.016298   |   5.6 |  0.00
Modify  | 2276.9     | 2415.3     | 2444       |  86.1 | 10.53
Other   |            | 110.8      |            |       |  0.48

Nlocal:    131 ave 140 max 119 min
Histogram: 2 0 1 1 0 2 0 1 4 1
Nghost:    4217.67 ave 4267 max 4165 min
Histogram: 1 0 3 0 2 2 1 1 1 1
Neighs:    47320.1 ave 52675 max 39233 min
Histogram: 1 0 1 1 0 4 1 0 1 3

Total # of neighbors = 567841
Ave neighs/atom = 361.222
Ave special neighs/atom = 1.9084
Neighbor list builds = 401496
Dangerous builds = 0
reset_timestep 0


#################### 3) Obtaining average volume in NPT ######################
# Creating restart files
restart ${Nf} 1.restart 2.restart
restart 100000 1.restart 2.restart

# Getting the average volume of the system
variable Volume equal vol
fix VoluAve all ave/time 1 ${Npnpt} ${Npnpt} v_Volume file volume.dat
fix VoluAve all ave/time 1 5000000 ${Npnpt} v_Volume file volume.dat
fix VoluAve all ave/time 1 5000000 5000000 v_Volume file volume.dat

variable Dens equal density
fix DensAve all ave/time 1 ${NBR} ${NBR} v_Dens file density.dat
fix DensAve all ave/time 1 50000 ${NBR} v_Dens file density.dat
fix DensAve all ave/time 1 50000 50000 v_Dens file density.dat

compute T1 all temp
fix TempAve1 all ave/time 1 ${NBR} ${NBR} c_T1 file temperatureNPT.dat
fix TempAve1 all ave/time 1 50000 ${NBR} c_T1 file temperatureNPT.dat
fix TempAve1 all ave/time 1 50000 50000 c_T1 file temperatureNPT.dat

compute P1 all pressure T1
fix PressAve1 all ave/time 1 ${NBR} ${NBR} c_P1 file pressureNPT.dat
fix PressAve1 all ave/time 1 50000 ${NBR} c_P1 file pressureNPT.dat
fix PressAve1 all ave/time 1 50000 50000 c_P1 file pressureNPT.dat

run ${Npnpt}
run 5000000
PPPM initialization ...
  extracting TIP4P info from pair style
  using 12-bit tables for long-range coulomb (../kspace.cpp:321)
  G vector (1/distance) = 0.310204
  grid = 24 24 24
  stencil order = 5
  estimated absolute RMS force accuracy = 0.00368913
  estimated relative force accuracy = 1.11097e-05
  using double precision FFTs
  3d grid and FFT values/proc = 5415 1152
Per MPI rank memory allocation (min/avg/max) = 8.658 | 8.663 | 8.666 Mbytes
Step Density Temp Press TotEng 
       0    1.1433076    312.83883    225.67743   -8265.0041 
  100000    1.1644345    291.58846   -404.04044    -8395.138 
  200000    1.1581316    302.48015    744.20722   -8405.6676 
  300000    1.1611369    291.87425   -1059.9301   -8474.1942 
  400000    1.1467086    302.05511   -368.18779   -8340.5055 
  500000    1.1454312    319.19816   -1219.2148   -8319.8877 
  600000    1.1632609    293.84776    1151.0393   -8378.5802 
  700000    1.1521587    301.69342   -113.52708    -8373.061 
  800000    1.1614933    296.61689    42.922113   -8395.0407 
  900000    1.1596816    292.27343   -289.29516   -8377.6537 
 1000000    1.1373705     307.9057    832.93388   -8288.8566 
 1100000    1.1507269    299.03143   -932.26776   -8383.9516 
 1200000    1.1371348    310.91751   -200.09334   -8235.7068 
 1300000    1.1593696    304.14597    1498.9661   -8334.0025 
 1400000    1.1437344    295.42789    68.313204   -8375.6165 
 1500000    1.1540138    290.35398    1028.6396   -8441.4789 
 1600000    1.1650172    306.98822    790.24153   -8356.5824 
 1700000     1.165713    287.06096    12.880079   -8467.8104 
 1800000    1.1720144    306.90689    809.45063   -8367.8238 
 1900000    1.1423272    308.80627    302.29298   -8390.4778 
 2000000     1.150993    301.09001    225.24453   -8407.5858 
 2100000    1.1603413    298.12881   -1092.6352   -8402.9295 
 2200000    1.1336132    296.78468   -112.94287   -8406.1428 
 2300000    1.1554214    298.62145    1329.3305   -8353.8947 
 2400000    1.1508872    306.90476   -640.88804   -8360.6872 
 2500000    1.1413609    295.04958   -1055.5383   -8378.2863 
 2600000    1.1449161    289.91911    -1067.704   -8427.5204 
 2700000    1.1444045    307.20953   -2153.1051   -8358.2541 
 2800000    1.1554265    305.96548    809.86277   -8400.9982 
 2900000    1.1466595    289.71299   -150.14664   -8396.8351 
 3000000    1.1585451    302.26563    851.00506   -8381.8558 
 3100000    1.1536245    285.78513   -960.32046   -8509.4966 
 3200000    1.1505534    293.38015   -533.20092   -8445.1011 
 3300000    1.1575726    296.94094    578.79268    -8383.851 
 3400000    1.1595747    293.19962   -301.51321    -8398.284 
 3500000    1.1666981    301.11595   -61.601164   -8440.4469 
 3600000    1.1537662    306.94397    475.37552   -8415.7619 
 3700000    1.1501536    300.89145    469.94962   -8382.0621 
 3800000     1.173542    286.86762   -282.21101   -8430.8846 
 3900000    1.1392619    282.90863    237.11472   -8395.5977 
 4000000    1.1572532     301.7218    100.26069   -8370.7754 
 4100000    1.1532386    289.18412    614.70191   -8403.5069 
 4200000    1.1513563    305.70248   -237.18532   -8335.2447 
 4300000    1.1465979    292.06669    87.242451   -8416.3265 
 4400000    1.1582257    296.50239   -935.43444   -8421.5755 
 4500000    1.1583355    293.66363    188.77942   -8411.9951 
 4600000     1.166161     307.8865    -159.8526   -8438.4077 
 4700000    1.1486635    310.05495   -1191.6891   -8380.2394 
 4800000     1.163467    285.78914    208.06644    -8433.578 
 4900000    1.1707129    295.36854    784.83737   -8381.8518 
 5000000    1.1442636    294.12486   -284.86441   -8384.1934 
Loop time of 23090.3 on 12 procs for 5000000 steps with 1572 atoms

Performance: 37.418 ns/day, 0.641 hours/ns, 216.541 timesteps/s
93.7% CPU use with 12 MPI tasks x no OpenMP threads

MPI task timing breakdown:
Section |  min time  |  avg time  |  max time  |%varavg| %total
---------------------------------------------------------------
Pair    | 12534      | 13460      | 14455      | 527.0 | 58.29
Bond    | 3.1522     | 3.3808     | 3.8112     |  10.3 |  0.01
Kspace  | 4363.9     | 5357.9     | 6289.9     | 836.3 | 23.20
Neigh   | 817.77     | 818.56     | 819.33     |   1.6 |  3.55
Comm    | 742.11     | 748.92     | 759.96     |  19.4 |  3.24
Output  | 0.2192     | 0.21988    | 0.22665    |   0.4 |  0.00
Modify  | 2451.7     | 2590.1     | 2619.1     |  83.2 | 11.22
Other   |            | 110.9      |            |       |  0.48

Nlocal:    131 ave 139 max 120 min
Histogram: 1 1 0 0 3 1 0 3 2 1
Nghost:    4181.33 ave 4257 max 4127 min
Histogram: 2 2 0 1 4 0 1 1 0 1
Neighs:    47375.1 ave 52990 max 40589 min
Histogram: 1 0 2 2 0 0 3 1 1 2

Total # of neighbors = 568501
Ave neighs/atom = 361.642
Ave special neighs/atom = 1.9084
Neighbor list builds = 401498
Dangerous builds = 0

#################### 4) Initializing the NVT ensemble ####################
# scaling the size of the system to the average volume
variable sidesize equal (f_VoluAve^(1.0/3.0))    # get the volume
variable xlow equal xlo
variable ylow equal ylo
variable zlow equal zlo
variable xhig equal (xlo+${sidesize})
variable xhig equal (xlo+25.6344355025396)
variable yhig equal (ylo+${sidesize})
variable yhig equal (ylo+25.6344355025396)
variable zhig equal (zlo+${sidesize})
variable zhig equal (zlo+25.6344355025396)
change_box all x final ${xlow} ${xhig} y final ${ylow} ${yhig} z final ${zlow} ${zhig}
change_box all x final 0.0761326308380177 ${xhig} y final ${ylow} ${yhig} z final ${zlow} ${zhig}
change_box all x final 0.0761326308380177 25.7105681333776 y final ${ylow} ${yhig} z final ${zlow} ${zhig}
change_box all x final 0.0761326308380177 25.7105681333776 y final 0.0761326308380177 ${yhig} z final ${zlow} ${zhig}
change_box all x final 0.0761326308380177 25.7105681333776 y final 0.0761326308380177 25.7105681333776 z final ${zlow} ${zhig}
change_box all x final 0.0761326308380177 25.7105681333776 y final 0.0761326308380177 25.7105681333776 z final 0.0761326308380177 ${zhig}
change_box all x final 0.0761326308380177 25.7105681333776 y final 0.0761326308380177 25.7105681333776 z final 0.0761326308380177 25.7105681333776
  orthogonal box = (0.0761326 0.0761326 0.0761326) to (25.7106 25.7721 25.7721)
  orthogonal box = (0.0761326 0.0761326 0.0761326) to (25.7106 25.7106 25.7721)
  orthogonal box = (0.0761326 0.0761326 0.0761326) to (25.7106 25.7106 25.7106)
unfix DensAve
unfix VoluAve
unfix TempAve1
unfix PressAve1

# changing the ensemble to NVT
unfix integrate
fix integrate all nvt temp ${Temp} ${Temp} 10.0
fix integrate all nvt temp 298.15 ${Temp} 10.0
fix integrate all nvt temp 298.15 298.15 10.0

timestep 0.001
run ${Ninvtpre}
run 10000
PPPM initialization ...
  extracting TIP4P info from pair style
  using 12-bit tables for long-range coulomb (../kspace.cpp:321)
  G vector (1/distance) = 0.310397
  grid = 24 24 24
  stencil order = 5
  estimated absolute RMS force accuracy = 0.00365983
  estimated relative force accuracy = 1.10215e-05
  using double precision FFTs
  3d grid and FFT values/proc = 5415 1152
Per MPI rank memory allocation (min/avg/max) = 8.659 | 8.663 | 8.666 Mbytes
Step Density Temp Press TotEng 
 5000000    1.1525234    294.12486    186773.61   -8320.2189 
 5010000    1.1525234    307.82281    767.13836   -8376.3079 
Loop time of 29.4736 on 12 procs for 10000 steps with 1572 atoms

Performance: 0.029 ns/day, 818.710 hours/ns, 339.287 timesteps/s
94.5% CPU use with 12 MPI tasks x no OpenMP threads

MPI task timing breakdown:
Section |  min time  |  avg time  |  max time  |%varavg| %total
---------------------------------------------------------------
Pair    | 15.969     | 18.264     | 19.901     |  30.3 | 61.97
Bond    | 0.0033451  | 0.0038973  | 0.0043986  |   0.5 |  0.01
Kspace  | 7.0106     | 8.5806     | 10.85      |  43.7 | 29.11
Neigh   | 0          | 0          | 0          |   0.0 |  0.00
Comm    | 1.3381     | 1.3928     | 1.4743     |   3.4 |  4.73
Output  | 6.2853e-05 | 8.1821e-05 | 0.00027493 |   0.0 |  0.00
Modify  | 1.0429     | 1.0582     | 1.0823     |   1.0 |  3.59
Other   |            | 0.1744     |            |       |  0.59

Nlocal:    131 ave 139 max 120 min
Histogram: 1 1 1 1 1 0 1 3 1 2
Nghost:    4190.83 ave 4266 max 4132 min
Histogram: 2 1 1 1 3 1 1 0 1 1
Neighs:    47714.8 ave 52857 max 41726 min
Histogram: 2 0 1 1 2 0 2 1 1 2

Total # of neighbors = 572577
Ave neighs/atom = 364.235
Ave special neighs/atom = 1.9084
Neighbor list builds = 0
Dangerous builds = 0
timestep 0.01
run ${Ninvtpre}
run 10000
PPPM initialization ...
  extracting TIP4P info from pair style
  using 12-bit tables for long-range coulomb (../kspace.cpp:321)
  G vector (1/distance) = 0.310397
  grid = 24 24 24
  stencil order = 5
  estimated absolute RMS force accuracy = 0.00365983
  estimated relative force accuracy = 1.10215e-05
  using double precision FFTs
  3d grid and FFT values/proc = 5415 1152
Per MPI rank memory allocation (min/avg/max) = 8.659 | 8.663 | 8.666 Mbytes
Step Density Temp Press TotEng 
 5010000    1.1525234    307.82281    767.15043   -8376.3079 
 5020000    1.1525234    305.09787    375.64056   -8399.9588 
Loop time of 29.9072 on 12 procs for 10000 steps with 1572 atoms

Performance: 0.289 ns/day, 83.076 hours/ns, 334.368 timesteps/s
94.1% CPU use with 12 MPI tasks x no OpenMP threads

MPI task timing breakdown:
Section |  min time  |  avg time  |  max time  |%varavg| %total
---------------------------------------------------------------
Pair    | 16.129     | 18.223     | 20.363     |  30.8 | 60.93
Bond    | 0.0033782  | 0.0038728  | 0.0042405  |   0.4 |  0.01
Kspace  | 7.0075     | 9.1388     | 11.212     |  43.0 | 30.56
Neigh   | 0.0058441  | 0.005859   | 0.0058725  |   0.0 |  0.02
Comm    | 1.2654     | 1.3083     | 1.3464     |   1.9 |  4.37
Output  | 5.953e-05  | 7.8738e-05 | 0.00027926 |   0.0 |  0.00
Modify  | 1.0487     | 1.0616     | 1.0709     |   0.7 |  3.55
Other   |            | 0.1654     |            |       |  0.55

Nlocal:    131 ave 140 max 119 min
Histogram: 1 0 1 1 1 2 2 1 2 1
Nghost:    4188.17 ave 4271 max 4108 min
Histogram: 2 1 1 0 0 4 2 0 0 2
Neighs:    47708.7 ave 54694 max 42086 min
Histogram: 2 0 3 1 1 1 1 2 0 1

Total # of neighbors = 572504
Ave neighs/atom = 364.188
Ave special neighs/atom = 1.9084
Neighbor list builds = 3
Dangerous builds = 0
timestep 0.1
run ${Ninvtpre}
run 10000
PPPM initialization ...
  extracting TIP4P info from pair style
  using 12-bit tables for long-range coulomb (../kspace.cpp:321)
  G vector (1/distance) = 0.310397
  grid = 24 24 24
  stencil order = 5
  estimated absolute RMS force accuracy = 0.00365983
  estimated relative force accuracy = 1.10215e-05
  using double precision FFTs
  3d grid and FFT values/proc = 5415 1152
Per MPI rank memory allocation (min/avg/max) = 8.659 | 8.663 | 8.666 Mbytes
Step Density Temp Press TotEng 
 5020000    1.1525234    305.09787    375.90298   -8399.9588 
 5030000    1.1525234    291.96038    15.309978   -8441.9932 
Loop time of 30.2254 on 12 procs for 10000 steps with 1572 atoms

Performance: 2.859 ns/day, 8.396 hours/ns, 330.847 timesteps/s
93.8% CPU use with 12 MPI tasks x no OpenMP threads

MPI task timing breakdown:
Section |  min time  |  avg time  |  max time  |%varavg| %total
---------------------------------------------------------------
Pair    | 16.775     | 18.384     | 20.289     |  27.3 | 60.82
Bond    | 0.0034255  | 0.0039038  | 0.0042876  |   0.4 |  0.01
Kspace  | 7.287      | 9.1772     | 10.785     |  38.1 | 30.36
Neigh   | 0.07775    | 0.077876   | 0.07798    |   0.0 |  0.26
Comm    | 1.3119     | 1.3611     | 1.4009     |   1.9 |  4.50
Output  | 6.2153e-05 | 8.1563e-05 | 0.0002826  |   0.0 |  0.00
Modify  | 1.0463     | 1.0542     | 1.0648     |   0.7 |  3.49
Other   |            | 0.1674     |            |       |  0.55

Nlocal:    131 ave 147 max 121 min
Histogram: 3 1 2 0 2 2 0 0 0 2
Nghost:    4225.67 ave 4284 max 4141 min
Histogram: 1 1 0 1 2 1 0 3 1 2
Neighs:    47682.9 ave 55877 max 41814 min
Histogram: 2 1 1 2 2 1 1 1 0 1

Total # of neighbors = 572195
Ave neighs/atom = 363.992
Ave special neighs/atom = 1.9084
Neighbor list builds = 39
Dangerous builds = 0
timestep 0.2
run ${Ninvtpre}
run 10000
PPPM initialization ...
  extracting TIP4P info from pair style
  using 12-bit tables for long-range coulomb (../kspace.cpp:321)
  G vector (1/distance) = 0.310397
  grid = 24 24 24
  stencil order = 5
  estimated absolute RMS force accuracy = 0.00365983
  estimated relative force accuracy = 1.10215e-05
  using double precision FFTs
  3d grid and FFT values/proc = 5415 1152
Per MPI rank memory allocation (min/avg/max) = 8.659 | 8.663 | 8.666 Mbytes
Step Density Temp Press TotEng 
 5030000    1.1525234    291.96038    15.208546   -8441.9932 
 5040000    1.1525234    299.27608    23.328483   -8382.4118 
Loop time of 30.5312 on 12 procs for 10000 steps with 1572 atoms

Performance: 5.660 ns/day, 4.240 hours/ns, 327.534 timesteps/s
93.3% CPU use with 12 MPI tasks x no OpenMP threads

MPI task timing breakdown:
Section |  min time  |  avg time  |  max time  |%varavg| %total
---------------------------------------------------------------
Pair    | 16.641     | 18.452     | 20.342     |  27.3 | 60.44
Bond    | 0.0033941  | 0.0039325  | 0.0042536  |   0.4 |  0.01
Kspace  | 7.4441     | 9.3128     | 11.099     |  37.8 | 30.50
Neigh   | 0.16209    | 0.16234    | 0.16258    |   0.0 |  0.53
Comm    | 1.3171     | 1.3686     | 1.4002     |   2.2 |  4.48
Output  | 5.9173e-05 | 7.908e-05  | 0.00028129 |   0.0 |  0.00
Modify  | 1.0512     | 1.0642     | 1.0779     |   0.8 |  3.49
Other   |            | 0.1672     |            |       |  0.55

Nlocal:    131 ave 143 max 121 min
Histogram: 3 1 0 0 1 4 0 2 0 1
Nghost:    4221.08 ave 4256 max 4170 min
Histogram: 2 1 0 1 0 0 2 2 0 4
Neighs:    47689.8 ave 53709 max 41859 min
Histogram: 2 0 3 0 1 1 1 1 2 1

Total # of neighbors = 572277
Ave neighs/atom = 364.044
Ave special neighs/atom = 1.9084
Neighbor list builds = 81
Dangerous builds = 0
timestep 0.5
run ${Ninvtpre}
run 10000
PPPM initialization ...
  extracting TIP4P info from pair style
  using 12-bit tables for long-range coulomb (../kspace.cpp:321)
  G vector (1/distance) = 0.310397
  grid = 24 24 24
  stencil order = 5
  estimated absolute RMS force accuracy = 0.00365983
  estimated relative force accuracy = 1.10215e-05
  using double precision FFTs
  3d grid and FFT values/proc = 5415 1152
Per MPI rank memory allocation (min/avg/max) = 8.659 | 8.663 | 8.666 Mbytes
Step Density Temp Press TotEng 
 5040000    1.1525234    299.27608    21.131305   -8382.4118 
 5050000    1.1525234    291.92043    -571.5203   -8425.2553 
Loop time of 30.876 on 12 procs for 10000 steps with 1572 atoms

Performance: 13.991 ns/day, 1.715 hours/ns, 323.876 timesteps/s
93.7% CPU use with 12 MPI tasks x no OpenMP threads

MPI task timing breakdown:
Section |  min time  |  avg time  |  max time  |%varavg| %total
---------------------------------------------------------------
Pair    | 16.78      | 18.67      | 20.178     |  25.4 | 60.47
Bond    | 0.0034432  | 0.0039269  | 0.0043041  |   0.4 |  0.01
Kspace  | 7.6644     | 9.1671     | 11.021     |  35.7 | 29.69
Neigh   | 0.40446    | 0.40508    | 0.40541    |   0.0 |  1.31
Comm    | 1.3566     | 1.3857     | 1.4252     |   1.7 |  4.49
Output  | 6.1437e-05 | 8.042e-05  | 0.00027445 |   0.0 |  0.00
Modify  | 1.0678     | 1.0756     | 1.0856     |   0.6 |  3.48
Other   |            | 0.169      |            |       |  0.55

Nlocal:    131 ave 141 max 122 min
Histogram: 2 1 0 1 2 2 2 0 1 1
Nghost:    4209.92 ave 4246 max 4188 min
Histogram: 2 2 1 2 0 2 2 0 0 1
Neighs:    47677.4 ave 51751 max 40789 min
Histogram: 1 1 1 0 0 1 2 1 2 3

Total # of neighbors = 572129
Ave neighs/atom = 363.95
Ave special neighs/atom = 1.9084
Neighbor list builds = 202
Dangerous builds = 0

unfix integrate
fix integrate all nvt temp ${Temp} ${Temp} 100.0
fix integrate all nvt temp 298.15 ${Temp} 100.0
fix integrate all nvt temp 298.15 298.15 100.0
# continuing the initialization with the final value of timestep
timestep ${tstep}
timestep 2

run ${Ninvt}
run 2500000
PPPM initialization ...
  extracting TIP4P info from pair style
  using 12-bit tables for long-range coulomb (../kspace.cpp:321)
  G vector (1/distance) = 0.310397
  grid = 24 24 24
  stencil order = 5
  estimated absolute RMS force accuracy = 0.00365983
  estimated relative force accuracy = 1.10215e-05
  using double precision FFTs
  3d grid and FFT values/proc = 5415 1152
Per MPI rank memory allocation (min/avg/max) = 8.659 | 8.663 | 8.666 Mbytes
Step Density Temp Press TotEng 
 5050000    1.1525234    291.92043   -585.33186   -8425.2553 
 5100000    1.1525234    295.12774    326.37523   -8394.2147 
 5200000    1.1525234    300.13995   -353.86761   -8435.5572 
 5300000    1.1525234    291.01648   -561.73132   -8354.4753 
 5400000    1.1525234     295.7011    184.15908   -8462.5004 
 5500000    1.1525234    291.38465   -804.95032   -8392.3321 
 5600000    1.1525234    300.21714   -391.86617   -8326.6553 
 5700000    1.1525234    312.80607    237.33637   -8338.6684 
 5800000    1.1525234    298.26999   -272.97336   -8382.5859 
 5900000    1.1525234    280.25086   -1086.4845   -8450.8201 
 6000000    1.1525234    292.04997    192.86891   -8442.1274 
 6100000    1.1525234    285.24398    428.59299   -8449.1839 
 6200000    1.1525234    297.60485   -574.08332   -8355.8314 
 6300000    1.1525234    303.86016    818.24915    -8377.309 
 6400000    1.1525234    296.44597   -599.01408   -8398.2812 
 6500000    1.1525234    304.06399    674.85023    -8415.406 
 6600000    1.1525234     305.7802    234.10651   -8354.9239 
 6700000    1.1525234    290.38581   -106.51501   -8395.2117 
 6800000    1.1525234    298.45034   -430.81993   -8397.9109 
 6900000    1.1525234    283.95853    768.19926   -8423.1827 
 7000000    1.1525234    304.49727   -637.68145   -8368.5087 
 7100000    1.1525234    299.50071    311.59113   -8382.9288 
 7200000    1.1525234    292.20667   -375.89213     -8466.52 
 7300000    1.1525234    302.24743    864.33505   -8343.8263 
 7400000    1.1525234    298.50407   -189.81546   -8420.8332 
 7500000    1.1525234    290.31182    988.15779   -8481.7145 
 7550000    1.1525234    301.01835   -61.458032   -8437.7585 
Loop time of 8267.7 on 12 procs for 2500000 steps with 1572 atoms

Performance: 52.252 ns/day, 0.459 hours/ns, 302.382 timesteps/s
93.2% CPU use with 12 MPI tasks x no OpenMP threads

MPI task timing breakdown:
Section |  min time  |  avg time  |  max time  |%varavg| %total
---------------------------------------------------------------
Pair    | 4440.9     | 4753.6     | 5080.8     | 309.9 | 57.50
Bond    | 0.87027    | 0.98873    | 1.0614     |   5.0 |  0.01
Kspace  | 2081.8     | 2407.6     | 2725.4     | 434.3 | 29.12
Neigh   | 404.56     | 404.99     | 405.41     |   1.2 |  4.90
Comm    | 369.73     | 376.91     | 381.78     |  20.4 |  4.56
Output  | 0.10938    | 0.10975    | 0.11353    |   0.3 |  0.00
Modify  | 278.66     | 280.69     | 282.88     |   8.1 |  3.40
Other   |            | 42.89      |            |       |  0.52

Nlocal:    131 ave 142 max 120 min
Histogram: 1 1 1 1 2 2 1 1 1 1
Nghost:    4217.42 ave 4296 max 4162 min
Histogram: 2 0 3 1 2 1 2 0 0 1
Neighs:    47665.8 ave 55393 max 43080 min
Histogram: 3 0 2 3 1 0 2 0 0 1

Total # of neighbors = 571989
Ave neighs/atom = 363.861
Ave special neighs/atom = 1.9084
Neighbor list builds = 198493
Dangerous builds = 0

reset_timestep 0

#################### 2) Production in NVT ensemble #####################
# computing average total energy, pontential energy, temperature, and pressure over time
variable TotEn equal etotal
fix TEAve all ave/time ${Ne} ${Nr} ${Nf} v_TotEn file TotalE.dat
fix TEAve all ave/time 1 ${Nr} ${Nf} v_TotEn file TotalE.dat
fix TEAve all ave/time 1 100000 ${Nf} v_TotEn file TotalE.dat
fix TEAve all ave/time 1 100000 100000 v_TotEn file TotalE.dat

variable PotEn equal pe
fix PEAve all ave/time ${Ne} ${Nr} ${Nf} v_PotEn file PotenE.dat
fix PEAve all ave/time 1 ${Nr} ${Nf} v_PotEn file PotenE.dat
fix PEAve all ave/time 1 100000 ${Nf} v_PotEn file PotenE.dat
fix PEAve all ave/time 1 100000 100000 v_PotEn file PotenE.dat

compute T all temp
fix TempAve all ave/time ${Ne} ${Nr} ${Nf} c_T file temperature.dat
fix TempAve all ave/time 1 ${Nr} ${Nf} c_T file temperature.dat
fix TempAve all ave/time 1 100000 ${Nf} c_T file temperature.dat
fix TempAve all ave/time 1 100000 100000 c_T file temperature.dat

compute P all pressure T
fix PressAve all ave/time ${Ne} ${Nr} ${Nf} c_P file pressure.dat
fix PressAve all ave/time 1 ${Nr} ${Nf} c_P file pressure.dat
fix PressAve all ave/time 1 100000 ${Nf} c_P file pressure.dat
fix PressAve all ave/time 1 100000 100000 c_P file pressure.dat


# computing self-diffusion and Onsager coefficients using the OCTP plugin
compute positions all position
fix f1 all ordern diffusivity ${Ndiff} ${Nwrit} c_positions nb ${nb} nbe ${nbe}
fix f1 all ordern diffusivity 1000 ${Nwrit} c_positions nb ${nb} nbe ${nbe}
fix f1 all ordern diffusivity 1000 100000 c_positions nb ${nb} nbe ${nbe}
fix f1 all ordern diffusivity 1000 100000 c_positions nb 10 nbe ${nbe}
fix f1 all ordern diffusivity 1000 100000 c_positions nb 10 nbe 20


# computing shear and bulk viscosities  using the OCTP plugin
fix f2 all ordern viscosity ${Nvisc} ${Nwrit} c_P nb ${nb} nbe ${nbe}
fix f2 all ordern viscosity 5 ${Nwrit} c_P nb ${nb} nbe ${nbe}
fix f2 all ordern viscosity 5 100000 c_P nb ${nb} nbe ${nbe}
fix f2 all ordern viscosity 5 100000 c_P nb 10 nbe ${nbe}
fix f2 all ordern viscosity 5 100000 c_P nb 10 nbe 20


# computing thermal conductivity using the OCTP plugin
compute KE all ke/atom
compute PE all pe/atom
compute ST all stress/atom NULL virial
compute heatflux all heat/flux KE PE ST
fix f3 all ordern thermalconductivity ${Ncond} ${Nwrit} c_heatflux nb ${nb} nbe ${nbe}
fix f3 all ordern thermalconductivity 5 ${Nwrit} c_heatflux nb ${nb} nbe ${nbe}
fix f3 all ordern thermalconductivity 5 100000 c_heatflux nb ${nb} nbe ${nbe}
fix f3 all ordern thermalconductivity 5 100000 c_heatflux nb 10 nbe ${nbe}
fix f3 all ordern thermalconductivity 5 100000 c_heatflux nb 10 nbe 20


# computing the RDF for all group pairs
compute rdfs all rdf/ext Nbin ${binnum} Nwrite ${Nrdfw}
compute rdfs all rdf/ext Nbin 2000 Nwrite ${Nrdfw}
compute rdfs all rdf/ext Nbin 2000 Nwrite 1000
fix f4 all ave/time 1 1 ${Nrdfe} c_rdfs
fix f4 all ave/time 1 1 1000 c_rdfs

dump trjectory all xyz ${Nd} movie.xyz
dump trjectory all xyz 100000 movie.xyz
dump_modify trjectory element Ow H K Cl

run ${Nrun1}
run 250000
PPPM initialization ...
  extracting TIP4P info from pair style
  using 12-bit tables for long-range coulomb (../kspace.cpp:321)
  G vector (1/distance) = 0.310397
  grid = 24 24 24
  stencil order = 5
  estimated absolute RMS force accuracy = 0.00365983
  estimated relative force accuracy = 1.10215e-05
  using double precision FFTs
  3d grid and FFT values/proc = 5415 1152
Per MPI rank memory allocation (min/avg/max) = 14.31 | 14.31 | 14.32 Mbytes
Step Density Temp Press TotEng 
       0    1.1525234    301.01835   -61.973354   -8437.7585 
  100000    1.1525234     299.2578   -129.35378   -8372.5827 
  200000    1.1525234    304.50942    -656.5033   -8390.6643 
  250000    1.1525234    303.03629    -733.9974   -8334.1126 
Loop time of 1283.76 on 12 procs for 250000 steps with 1572 atoms

Performance: 33.651 ns/day, 0.713 hours/ns, 194.741 timesteps/s
93.1% CPU use with 12 MPI tasks x no OpenMP threads

MPI task timing breakdown:
Section |  min time  |  avg time  |  max time  |%varavg| %total
---------------------------------------------------------------
Pair    | 709.9      | 766.03     | 834.05     | 145.3 | 59.67
Bond    | 3.295      | 3.3509     | 3.3862     |   1.6 |  0.26
Kspace  | 289.65     | 357.75     | 413.86     | 212.9 | 27.87
Neigh   | 40.673     | 40.723     | 40.764     |   0.4 |  3.17
Comm    | 38.604     | 38.884     | 39.198     |   3.1 |  3.03
Output  | 0.069905   | 0.070197   | 0.070589   |   0.1 |  0.01
Modify  | 71.742     | 72.048     | 72.253     |   1.7 |  5.61
Other   |            | 4.899      |            |       |  0.38

Nlocal:    131 ave 140 max 121 min
Histogram: 1 2 1 0 1 0 4 1 0 2
Nghost:    4225.42 ave 4289 max 4166 min
Histogram: 2 1 1 2 0 0 3 0 1 2
Neighs:    47724.2 ave 51700 max 41944 min
Histogram: 1 0 2 0 2 0 2 1 1 3

Total # of neighbors = 572691
Ave neighs/atom = 364.307
Ave special neighs/atom = 1.9084
Neighbor list builds = 19870
Dangerous builds = 0
shell bash copy_files.sh dt_${tstep} 00.25Mstep
shell bash copy_files.sh dt_2 00.25Mstep

run ${Nrun1}
run 250000
PPPM initialization ...
  extracting TIP4P info from pair style
  using 12-bit tables for long-range coulomb (../kspace.cpp:321)
  G vector (1/distance) = 0.310397
  grid = 24 24 24
  stencil order = 5
  estimated absolute RMS force accuracy = 0.00365983
  estimated relative force accuracy = 1.10215e-05
  using double precision FFTs
  3d grid and FFT values/proc = 5415 1152
Per MPI rank memory allocation (min/avg/max) = 14.31 | 14.31 | 14.32 Mbytes
Step Density Temp Press TotEng 
  250000    1.1525234    303.03629   -734.27608   -8334.1126 
  300000    1.1525234    292.35709    -564.4806   -8467.5976 
  400000    1.1525234    296.86006   -69.134293   -8386.7763 
  500000    1.1525234    299.40422    414.27699    -8447.438 
Loop time of 1272.86 on 12 procs for 250000 steps with 1572 atoms

Performance: 33.939 ns/day, 0.707 hours/ns, 196.408 timesteps/s
93.6% CPU use with 12 MPI tasks x no OpenMP threads

MPI task timing breakdown:
Section |  min time  |  avg time  |  max time  |%varavg| %total
---------------------------------------------------------------
Pair    | 710.98     | 766.21     | 806.33     | 112.2 | 60.20
Bond    | 3.2766     | 3.3675     | 3.4283     |   2.2 |  0.26
Kspace  | 306.48     | 346.63     | 402.24     | 167.3 | 27.23
Neigh   | 40.571     | 40.628     | 40.666     |   0.5 |  3.19
Comm    | 38.542     | 38.928     | 39.211     |   3.0 |  3.06
Output  | 0.10198    | 0.10233    | 0.1026     |   0.1 |  0.01
Modify  | 71.798     | 72.064     | 72.245     |   1.5 |  5.66
Other   |            | 4.929      |            |       |  0.39

Nlocal:    131 ave 141 max 117 min
Histogram: 1 0 1 1 2 0 3 1 1 2
Nghost:    4206.83 ave 4231 max 4151 min
Histogram: 1 0 0 0 2 1 1 1 2 4
Neighs:    47686.5 ave 53413 max 39992 min
Histogram: 1 1 1 1 1 0 2 1 3 1

Total # of neighbors = 572238
Ave neighs/atom = 364.019
Ave special neighs/atom = 1.9084
Neighbor list builds = 19918
Dangerous builds = 0
shell bash copy_files.sh dt_${tstep} 00.50Mstep
shell bash copy_files.sh dt_2 00.50Mstep

run ${Nrun1}
run 250000
PPPM initialization ...
  extracting TIP4P info from pair style
  using 12-bit tables for long-range coulomb (../kspace.cpp:321)
  G vector (1/distance) = 0.310397
  grid = 24 24 24
  stencil order = 5
  estimated absolute RMS force accuracy = 0.00365983
  estimated relative force accuracy = 1.10215e-05
  using double precision FFTs
  3d grid and FFT values/proc = 5415 1152
Per MPI rank memory allocation (min/avg/max) = 14.31 | 14.31 | 14.32 Mbytes
Step Density Temp Press TotEng 
  500000    1.1525234    299.40422     414.3796    -8447.438 
  600000    1.1525234    309.12915   -1008.4752   -8337.0087 
  700000    1.1525234    301.43727   -53.198006    -8383.601 
  750000    1.1525234    287.39004    257.38067    -8508.577 
Loop time of 1273.83 on 12 procs for 250000 steps with 1572 atoms

Performance: 33.913 ns/day, 0.708 hours/ns, 196.258 timesteps/s
93.4% CPU use with 12 MPI tasks x no OpenMP threads

MPI task timing breakdown:
Section |  min time  |  avg time  |  max time  |%varavg| %total
---------------------------------------------------------------
Pair    | 698.23     | 764.36     | 815.81     | 137.5 | 60.00
Bond    | 3.2888     | 3.3502     | 3.4273     |   2.0 |  0.26
Kspace  | 298.24     | 349.72     | 416.18     | 203.8 | 27.45
Neigh   | 40.382     | 40.435     | 40.482     |   0.5 |  3.17
Comm    | 38.618     | 38.95      | 39.22      |   2.9 |  3.06
Output  | 0.067857   | 0.068287   | 0.068984   |   0.1 |  0.01
Modify  | 71.783     | 72.032     | 72.203     |   1.4 |  5.65
Other   |            | 4.92       |            |       |  0.39

Nlocal:    131 ave 145 max 121 min
Histogram: 1 1 3 1 2 1 1 0 1 1
Nghost:    4177.75 ave 4220 max 4127 min
Histogram: 2 0 1 2 0 2 0 1 1 3
Neighs:    47726.3 ave 56553 max 42798 min
Histogram: 2 3 2 1 1 0 1 0 1 1

Total # of neighbors = 572716
Ave neighs/atom = 364.323
Ave special neighs/atom = 1.9084
Neighbor list builds = 19842
Dangerous builds = 0
shell bash copy_files.sh dt_${tstep} 00.75Mstep
shell bash copy_files.sh dt_2 00.75Mstep

run ${Nrun1}
run 250000
PPPM initialization ...
  extracting TIP4P info from pair style
  using 12-bit tables for long-range coulomb (../kspace.cpp:321)
  G vector (1/distance) = 0.310397
  grid = 24 24 24
  stencil order = 5
  estimated absolute RMS force accuracy = 0.00365983
  estimated relative force accuracy = 1.10215e-05
  using double precision FFTs
  3d grid and FFT values/proc = 5415 1152
Per MPI rank memory allocation (min/avg/max) = 14.31 | 14.31 | 14.32 Mbytes
Step Density Temp Press TotEng 
  750000    1.1525234    287.39004    256.97132    -8508.577 
  800000    1.1525234    293.12889    343.60229   -8353.2033 
  900000    1.1525234    293.31828   -1137.1525   -8366.3036 
 1000000    1.1525234    304.32009    19.761744   -8393.2553 
Loop time of 1272.65 on 12 procs for 250000 steps with 1572 atoms

Performance: 33.945 ns/day, 0.707 hours/ns, 196.440 timesteps/s
93.7% CPU use with 12 MPI tasks x no OpenMP threads

MPI task timing breakdown:
Section |  min time  |  avg time  |  max time  |%varavg| %total
---------------------------------------------------------------
Pair    | 720.56     | 768.3      | 806.98     | 112.4 | 60.37
Bond    | 3.3246     | 3.378      | 3.4463     |   1.6 |  0.27
Kspace  | 305.7      | 344.43     | 392.09     | 168.3 | 27.06
Neigh   | 40.428     | 40.475     | 40.51      |   0.4 |  3.18
Comm    | 38.607     | 38.924     | 39.214     |   2.9 |  3.06
Output  | 0.1022     | 0.10266    | 0.10314    |   0.1 |  0.01
Modify  | 71.815     | 72.102     | 72.265     |   1.6 |  5.67
Other   |            | 4.942      |            |       |  0.39

Nlocal:    131 ave 145 max 114 min
Histogram: 1 0 2 0 1 2 2 2 1 1
Nghost:    4224.5 ave 4254 max 4182 min
Histogram: 1 2 2 0 0 0 0 1 1 5
Neighs:    47699.2 ave 53102 max 39765 min
Histogram: 1 0 0 2 3 0 1 1 2 2

Total # of neighbors = 572390
Ave neighs/atom = 364.116
Ave special neighs/atom = 1.9084
Neighbor list builds = 19881
Dangerous builds = 0
shell bash copy_files.sh dt_${tstep} 01.00Mstep
shell bash copy_files.sh dt_2 01.00Mstep

run ${Nrun1}
run 250000
PPPM initialization ...
  extracting TIP4P info from pair style
  using 12-bit tables for long-range coulomb (../kspace.cpp:321)
  G vector (1/distance) = 0.310397
  grid = 24 24 24
  stencil order = 5
  estimated absolute RMS force accuracy = 0.00365983
  estimated relative force accuracy = 1.10215e-05
  using double precision FFTs
  3d grid and FFT values/proc = 5415 1152
Per MPI rank memory allocation (min/avg/max) = 14.31 | 14.31 | 14.32 Mbytes
Step Density Temp Press TotEng 
 1000000    1.1525234    304.32009    20.084541   -8393.2553 
 1100000    1.1525234    297.89078    357.82976   -8417.4888 
 1200000    1.1525234    297.65725   -55.731925   -8405.3503 
 1250000    1.1525234    298.87568   -483.07564   -8431.4012 
Loop time of 1277.25 on 12 procs for 250000 steps with 1572 atoms

Performance: 33.823 ns/day, 0.710 hours/ns, 195.733 timesteps/s
93.3% CPU use with 12 MPI tasks x no OpenMP threads

MPI task timing breakdown:
Section |  min time  |  avg time  |  max time  |%varavg| %total
---------------------------------------------------------------
Pair    | 711.41     | 764.62     | 827.02     | 127.0 | 59.86
Bond    | 3.3298     | 3.357      | 3.3965     |   1.1 |  0.26
Kspace  | 290.48     | 352.94     | 406.46     | 187.3 | 27.63
Neigh   | 40.423     | 40.475     | 40.513     |   0.4 |  3.17
Comm    | 38.628     | 38.9       | 39.234     |   3.0 |  3.05
Output  | 0.067848   | 0.068249   | 0.068888   |   0.1 |  0.01
Modify  | 71.68      | 71.972     | 72.156     |   1.6 |  5.63
Other   |            | 4.912      |            |       |  0.38

Nlocal:    131 ave 141 max 118 min
Histogram: 1 0 0 2 1 3 1 2 1 1
Nghost:    4217.58 ave 4272 max 4141 min
Histogram: 1 0 0 3 1 2 1 1 1 2
Neighs:    47675.2 ave 54040 max 40466 min
Histogram: 1 0 2 0 2 3 1 0 2 1

Total # of neighbors = 572103
Ave neighs/atom = 363.933
Ave special neighs/atom = 1.9084
Neighbor list builds = 19826
Dangerous builds = 0
shell bash copy_files.sh dt_${tstep} 01.25Mstep
shell bash copy_files.sh dt_2 01.25Mstep

run ${Nrun1}
run 250000
PPPM initialization ...
  extracting TIP4P info from pair style
  using 12-bit tables for long-range coulomb (../kspace.cpp:321)
  G vector (1/distance) = 0.310397
  grid = 24 24 24
  stencil order = 5
  estimated absolute RMS force accuracy = 0.00365983
  estimated relative force accuracy = 1.10215e-05
  using double precision FFTs
  3d grid and FFT values/proc = 5415 1152
Per MPI rank memory allocation (min/avg/max) = 14.31 | 14.31 | 14.32 Mbytes
Step Density Temp Press TotEng 
 1250000    1.1525234    298.87568   -483.36817   -8431.4012 
 1300000    1.1525234    292.12201    -428.6714   -8398.9821 
 1400000    1.1525234    302.96387    486.25205   -8387.8264 
 1500000    1.1525234    292.72843    53.711751   -8372.7555 
Loop time of 1285.64 on 12 procs for 250000 steps with 1572 atoms

Performance: 33.602 ns/day, 0.714 hours/ns, 194.456 timesteps/s
93.1% CPU use with 12 MPI tasks x no OpenMP threads

MPI task timing breakdown:
Section |  min time  |  avg time  |  max time  |%varavg| %total
---------------------------------------------------------------
Pair    | 690.89     | 765.68     | 820.04     | 151.8 | 59.56
Bond    | 3.2761     | 3.3431     | 3.4008     |   1.9 |  0.26
Kspace  | 305.46     | 359.89     | 434.98     | 222.0 | 27.99
Neigh   | 40.63      | 40.69      | 40.743     |   0.5 |  3.16
Comm    | 38.641     | 38.979     | 39.249     |   3.0 |  3.03
Output  | 0.10151    | 0.10179    | 0.10233    |   0.1 |  0.01
Modify  | 71.768     | 72.039     | 72.219     |   1.6 |  5.60
Other   |            | 4.914      |            |       |  0.38

Nlocal:    131 ave 144 max 120 min
Histogram: 2 3 0 1 1 0 0 2 2 1
Nghost:    4215.33 ave 4273 max 4175 min
Histogram: 2 1 2 2 1 2 0 0 0 2
Neighs:    47752.2 ave 53758 max 41209 min
Histogram: 2 1 2 0 1 1 0 0 1 4

Total # of neighbors = 573027
Ave neighs/atom = 364.521
Ave special neighs/atom = 1.9084
Neighbor list builds = 19853
Dangerous builds = 0
shell bash copy_files.sh dt_${tstep} 01.50Mstep
shell bash copy_files.sh dt_2 01.50Mstep

run ${Nrun1}
run 250000
PPPM initialization ...
  extracting TIP4P info from pair style
  using 12-bit tables for long-range coulomb (../kspace.cpp:321)
  G vector (1/distance) = 0.310397
  grid = 24 24 24
  stencil order = 5
  estimated absolute RMS force accuracy = 0.00365983
  estimated relative force accuracy = 1.10215e-05
  using double precision FFTs
  3d grid and FFT values/proc = 5415 1152
Per MPI rank memory allocation (min/avg/max) = 14.31 | 14.31 | 14.32 Mbytes
Step Density Temp Press TotEng 
 1500000    1.1525234    292.72843    54.232083   -8372.7555 
 1600000    1.1525234    276.49337    -667.9294   -8412.9421 
 1700000    1.1525234    303.89651    93.830813   -8300.2776 
 1750000    1.1525234    302.44369    -1084.384   -8412.9424 
Loop time of 1285.8 on 12 procs for 250000 steps with 1572 atoms

Performance: 33.598 ns/day, 0.714 hours/ns, 194.431 timesteps/s
93.1% CPU use with 12 MPI tasks x no OpenMP threads

MPI task timing breakdown:
Section |  min time  |  avg time  |  max time  |%varavg| %total
---------------------------------------------------------------
Pair    | 702.28     | 766.11     | 836.77     | 151.0 | 59.58
Bond    | 3.2746     | 3.3481     | 3.3845     |   1.7 |  0.26
Kspace  | 288.98     | 359.7      | 423.81     | 221.0 | 27.98
Neigh   | 40.641     | 40.695     | 40.738     |   0.4 |  3.16
Comm    | 38.603     | 38.94      | 39.215     |   3.0 |  3.03
Output  | 0.068018   | 0.068445   | 0.068896   |   0.1 |  0.01
Modify  | 71.762     | 72.031     | 72.219     |   1.6 |  5.60
Other   |            | 4.901      |            |       |  0.38

Nlocal:    131 ave 146 max 120 min
Histogram: 2 2 0 2 2 0 3 0 0 1
Nghost:    4225.17 ave 4298 max 4150 min
Histogram: 1 1 1 3 0 1 1 2 1 1
Neighs:    47694.3 ave 55742 max 42494 min
Histogram: 1 2 1 4 1 1 1 0 0 1

Total # of neighbors = 572332
Ave neighs/atom = 364.079
Ave special neighs/atom = 1.9084
Neighbor list builds = 19861
Dangerous builds = 0
shell bash copy_files.sh dt_${tstep} 01.75Mstep
shell bash copy_files.sh dt_2 01.75Mstep

run ${Nrun1}
run 250000
PPPM initialization ...
  extracting TIP4P info from pair style
  using 12-bit tables for long-range coulomb (../kspace.cpp:321)
  G vector (1/distance) = 0.310397
  grid = 24 24 24
  stencil order = 5
  estimated absolute RMS force accuracy = 0.00365983
  estimated relative force accuracy = 1.10215e-05
  using double precision FFTs
  3d grid and FFT values/proc = 5415 1152
Per MPI rank memory allocation (min/avg/max) = 14.31 | 14.31 | 14.32 Mbytes
Step Density Temp Press TotEng 
 1750000    1.1525234    302.44369   -1084.3228   -8412.9424 
 1800000    1.1525234    291.23222   -724.57504    -8324.607 
 1900000    1.1525234    295.35513   -80.950465   -8432.3076 
 2000000    1.1525234     304.6078   -240.15501   -8374.7406 
Loop time of 1276.42 on 12 procs for 250000 steps with 1572 atoms

Performance: 33.845 ns/day, 0.709 hours/ns, 195.861 timesteps/s
93.3% CPU use with 12 MPI tasks x no OpenMP threads

MPI task timing breakdown:
Section |  min time  |  avg time  |  max time  |%varavg| %total
---------------------------------------------------------------
Pair    | 704.95     | 763.42     | 813.47     | 134.0 | 59.81
Bond    | 3.2995     | 3.3581     | 3.3998     |   2.0 |  0.26
Kspace  | 302.88     | 353.07     | 411.84     | 197.5 | 27.66
Neigh   | 40.513     | 40.571     | 40.612     |   0.5 |  3.18
Comm    | 38.581     | 38.903     | 39.205     |   3.1 |  3.05
Output  | 0.10175    | 0.10211    | 0.10245    |   0.1 |  0.01
Modify  | 71.785     | 72.08      | 72.259     |   1.6 |  5.65
Other   |            | 4.912      |            |       |  0.38

Nlocal:    131 ave 146 max 123 min
Histogram: 3 0 2 3 2 1 0 0 0 1
Nghost:    4216.5 ave 4313 max 4155 min
Histogram: 3 1 1 1 2 1 1 1 0 1
Neighs:    47695.1 ave 56231 max 41210 min
Histogram: 1 2 2 0 2 2 2 0 0 1

Total # of neighbors = 572341
Ave neighs/atom = 364.085
Ave special neighs/atom = 1.9084
Neighbor list builds = 19871
Dangerous builds = 0
shell bash copy_files.sh dt_${tstep} 02.00step
shell bash copy_files.sh dt_2 02.00step

run ${Nrun2}
run 1000000
PPPM initialization ...
  extracting TIP4P info from pair style
  using 12-bit tables for long-range coulomb (../kspace.cpp:321)
  G vector (1/distance) = 0.310397
  grid = 24 24 24
  stencil order = 5
  estimated absolute RMS force accuracy = 0.00365983
  estimated relative force accuracy = 1.10215e-05
  using double precision FFTs
  3d grid and FFT values/proc = 5415 1152
Per MPI rank memory allocation (min/avg/max) = 14.31 | 14.31 | 14.32 Mbytes
Step Density Temp Press TotEng 
 2000000    1.1525234     304.6078   -239.30474   -8374.7406 
 2100000    1.1525234    297.30043    412.42075   -8360.6396 
 2200000    1.1525234    295.10869   -91.631226   -8443.8081 
 2300000    1.1525234    292.44809   -636.58956   -8384.4836 
 2400000    1.1525234    307.82104   -610.97109   -8360.1762 
 2500000    1.1525234    290.29356   -119.32198   -8431.2789 
 2600000    1.1525234    297.39936      1561.19   -8373.9675 
 2700000    1.1525234    287.57981    1176.0107   -8406.3389 
 2800000    1.1525234    298.93541   -813.53557   -8406.5896 
 2900000    1.1525234    300.21225    277.07699   -8423.3195 
 3000000    1.1525234    303.51869   -485.70069   -8465.8192 
Loop time of 5112.96 on 12 procs for 1000000 steps with 1572 atoms

Performance: 33.796 ns/day, 0.710 hours/ns, 195.581 timesteps/s
93.4% CPU use with 12 MPI tasks x no OpenMP threads

MPI task timing breakdown:
Section |  min time  |  avg time  |  max time  |%varavg| %total
---------------------------------------------------------------
Pair    | 2815.1     | 3066.7     | 3220.2     | 254.4 | 59.98
Bond    | 13.148     | 13.437     | 13.721     |   3.9 |  0.26
Kspace  | 1253.1     | 1406.9     | 1659.6     | 376.7 | 27.52
Neigh   | 162.02     | 162.2      | 162.35     |   0.8 |  3.17
Comm    | 154.29     | 155.58     | 156.76     |   5.9 |  3.04
Output  | 0.3379     | 0.33866    | 0.34039    |   0.1 |  0.01
Modify  | 287.12     | 288.21     | 288.9      |   3.1 |  5.64
Other   |            | 19.69      |            |       |  0.39

Nlocal:    131 ave 145 max 112 min
Histogram: 1 0 0 0 1 4 4 1 0 1
Nghost:    4183.83 ave 4237 max 4138 min
Histogram: 2 0 2 2 1 0 3 0 0 2
Neighs:    47723.2 ave 56271 max 39158 min
Histogram: 1 0 1 1 2 5 1 0 0 1

Total # of neighbors = 572678
Ave neighs/atom = 364.299
Ave special neighs/atom = 1.9084
Neighbor list builds = 79414
Dangerous builds = 0
shell bash copy_files.sh dt_${tstep} 03.00Mstep
shell bash copy_files.sh dt_2 03.00Mstep

run ${Nrun2}
run 1000000
PPPM initialization ...
  extracting TIP4P info from pair style
  using 12-bit tables for long-range coulomb (../kspace.cpp:321)
  G vector (1/distance) = 0.310397
  grid = 24 24 24
  stencil order = 5
  estimated absolute RMS force accuracy = 0.00365983
  estimated relative force accuracy = 1.10215e-05
  using double precision FFTs
  3d grid and FFT values/proc = 5415 1152
Per MPI rank memory allocation (min/avg/max) = 14.31 | 14.31 | 14.32 Mbytes
Step Density Temp Press TotEng 
 3000000    1.1525234    303.51869   -485.78008   -8465.8192 
 3100000    1.1525234    303.75952   -330.64689   -8360.5115 
 3200000    1.1525234    300.72509    322.12282   -8357.0421 
 3300000    1.1525234     302.4293    471.47665   -8428.0177 
 3400000    1.1525234    296.91627    -594.6255   -8426.0686 
 3500000    1.1525234    297.93571    -168.4561   -8376.1665 
 3600000    1.1525234    297.89846     392.0447    -8360.764 
 3700000    1.1525234    301.04191     490.9273   -8367.5398 
 3800000    1.1525234    301.05106   -597.87311    -8354.016 
 3900000    1.1525234    308.10931    127.62363   -8400.6023 
 4000000    1.1525234    311.39608    32.819258   -8319.6057 
Loop time of 5109.21 on 12 procs for 1000000 steps with 1572 atoms

Performance: 33.821 ns/day, 0.710 hours/ns, 195.725 timesteps/s
93.4% CPU use with 12 MPI tasks x no OpenMP threads

MPI task timing breakdown:
Section |  min time  |  avg time  |  max time  |%varavg| %total
---------------------------------------------------------------
Pair    | 2763.7     | 3059       | 3254.9     | 273.2 | 59.87
Bond    | 13.242     | 13.425     | 13.696     |   3.7 |  0.26
Kspace  | 1214.5     | 1410.5     | 1707.1     | 403.4 | 27.61
Neigh   | 161.98     | 162.19     | 162.36     |   0.9 |  3.17
Comm    | 154.31     | 155.67     | 156.85     |   6.0 |  3.05
Output  | 0.33911    | 0.33995    | 0.34136    |   0.1 |  0.01
Modify  | 287.38     | 288.44     | 289.12     |   3.1 |  5.65
Other   |            | 19.65      |            |       |  0.38

Nlocal:    131 ave 136 max 123 min
Histogram: 1 0 0 2 1 1 1 2 3 1
Nghost:    4183.92 ave 4213 max 4139 min
Histogram: 1 0 0 1 2 0 4 1 1 2
Neighs:    47709.7 ave 51466 max 42893 min
Histogram: 2 1 0 1 0 0 2 4 0 2

Total # of neighbors = 572516
Ave neighs/atom = 364.196
Ave special neighs/atom = 1.9084
Neighbor list builds = 79396
Dangerous builds = 0
shell bash copy_files.sh dt_${tstep} 04.00Mstep
shell bash copy_files.sh dt_2 04.00Mstep

run ${Nrun2}
run 1000000
PPPM initialization ...
  extracting TIP4P info from pair style
  using 12-bit tables for long-range coulomb (../kspace.cpp:321)
  G vector (1/distance) = 0.310397
  grid = 24 24 24
  stencil order = 5
  estimated absolute RMS force accuracy = 0.00365983
  estimated relative force accuracy = 1.10215e-05
  using double precision FFTs
  3d grid and FFT values/proc = 5415 1152
Per MPI rank memory allocation (min/avg/max) = 14.31 | 14.31 | 14.32 Mbytes
Step Density Temp Press TotEng 
 4000000    1.1525234    311.39608    31.783116   -8319.6057 
 4100000    1.1525234    299.18655    -538.7835   -8384.8867 
 4200000    1.1525234    301.95593   -392.93254   -8392.0804 
 4300000    1.1525234    291.16754    1275.6853   -8394.0758 
 4400000    1.1525234    319.53388    16.003259   -8312.6043 
 4500000    1.1525234    293.99983   -56.998192   -8393.8033 
 4600000    1.1525234    300.81863     564.8294   -8377.6605 
 4700000    1.1525234    284.15318   -984.33945   -8481.0468 
 4800000    1.1525234    310.53992    260.84011   -8331.7427 
 4900000    1.1525234    303.01121   -295.81667   -8401.2551 
 5000000    1.1525234    300.35959     6.184924   -8386.9467 
Loop time of 5121.33 on 12 procs for 1000000 steps with 1572 atoms

Performance: 33.741 ns/day, 0.711 hours/ns, 195.262 timesteps/s
93.2% CPU use with 12 MPI tasks x no OpenMP threads

MPI task timing breakdown:
Section |  min time  |  avg time  |  max time  |%varavg| %total
---------------------------------------------------------------
Pair    | 2847.9     | 3059.5     | 3278.8     | 272.9 | 59.74
Bond    | 13.137     | 13.399     | 13.548     |   3.0 |  0.26
Kspace  | 1202.4     | 1421.9     | 1633.5     | 401.3 | 27.76
Neigh   | 162.47     | 162.65     | 162.77     |   0.7 |  3.18
Comm    | 154.47     | 155.62     | 156.73     |   6.0 |  3.04
Output  | 0.33859    | 0.33928    | 0.34041    |   0.1 |  0.01
Modify  | 287.25     | 288.35     | 289.13     |   3.2 |  5.63
Other   |            | 19.62      |            |       |  0.38

Nlocal:    131 ave 144 max 123 min
Histogram: 3 0 3 2 1 1 0 0 0 2
Nghost:    4217.08 ave 4280 max 4165 min
Histogram: 2 1 0 3 1 2 1 0 0 2
Neighs:    47716.4 ave 54176 max 41277 min
Histogram: 1 2 0 1 2 2 1 0 2 1

Total # of neighbors = 572597
Ave neighs/atom = 364.247
Ave special neighs/atom = 1.9084
Neighbor list builds = 79466
Dangerous builds = 0
shell bash copy_files.sh dt_${tstep} 05.00Mstep
shell bash copy_files.sh dt_2 05.00Mstep

run ${Nrun2}
run 1000000
PPPM initialization ...
  extracting TIP4P info from pair style
  using 12-bit tables for long-range coulomb (../kspace.cpp:321)
  G vector (1/distance) = 0.310397
  grid = 24 24 24
  stencil order = 5
  estimated absolute RMS force accuracy = 0.00365983
  estimated relative force accuracy = 1.10215e-05
  using double precision FFTs
  3d grid and FFT values/proc = 5415 1152
Per MPI rank memory allocation (min/avg/max) = 14.31 | 14.31 | 14.32 Mbytes
Step Density Temp Press TotEng 
 5000000    1.1525234    300.35959    6.5971318   -8386.9467 
 5100000    1.1525234    295.98977   -608.54045   -8431.1723 
 5200000    1.1525234    298.25869    327.06625    -8401.656 
 5300000    1.1525234    296.34949    555.96663   -8459.7895 
 5400000    1.1525234    300.95815    669.98035   -8397.6227 
 5500000    1.1525234    291.99306   -132.70795   -8430.6029 
 5600000    1.1525234    292.71312   -1278.9446    -8457.206 
 5700000    1.1525234    282.93457   -239.62862   -8513.0539 
 5800000    1.1525234     306.7786   -637.49817   -8299.3516 
 5900000    1.1525234    303.56748    369.98704   -8375.7091 
 6000000    1.1525234    296.58594    -1373.415   -8407.0451 
Loop time of 5097.99 on 12 procs for 1000000 steps with 1572 atoms

Performance: 33.896 ns/day, 0.708 hours/ns, 196.156 timesteps/s
93.5% CPU use with 12 MPI tasks x no OpenMP threads

MPI task timing breakdown:
Section |  min time  |  avg time  |  max time  |%varavg| %total
---------------------------------------------------------------
Pair    | 2810       | 3053.7     | 3231.4     | 283.2 | 59.90
Bond    | 13.145     | 13.424     | 13.64      |   3.8 |  0.26
Kspace  | 1226.5     | 1404.5     | 1648.3     | 418.6 | 27.55
Neigh   | 162.04     | 162.25     | 162.4      |   0.9 |  3.18
Comm    | 154.54     | 155.75     | 156.72     |   5.5 |  3.06
Output  | 0.34098    | 0.34183    | 0.34353    |   0.1 |  0.01
Modify  | 287.37     | 288.39     | 289.08     |   3.0 |  5.66
Other   |            | 19.63      |            |       |  0.39

Nlocal:    131 ave 141 max 120 min
Histogram: 1 1 1 2 0 1 2 3 0 1
Nghost:    4216.83 ave 4238 max 4183 min
Histogram: 2 1 1 0 0 0 0 2 2 4
Neighs:    47691 ave 54286 max 39476 min
Histogram: 1 0 1 1 2 0 3 3 0 1

Total # of neighbors = 572292
Ave neighs/atom = 364.053
Ave special neighs/atom = 1.9084
Neighbor list builds = 79471
Dangerous builds = 0
shell bash copy_files.sh dt_${tstep} 06.00Mstep
shell bash copy_files.sh dt_2 06.00Mstep

run ${Nrun2}
run 1000000
PPPM initialization ...
  extracting TIP4P info from pair style
  using 12-bit tables for long-range coulomb (../kspace.cpp:321)
  G vector (1/distance) = 0.310397
  grid = 24 24 24
  stencil order = 5
  estimated absolute RMS force accuracy = 0.00365983
  estimated relative force accuracy = 1.10215e-05
  using double precision FFTs
  3d grid and FFT values/proc = 5415 1152
Per MPI rank memory allocation (min/avg/max) = 14.31 | 14.31 | 14.32 Mbytes
Step Density Temp Press TotEng 
 6000000    1.1525234    296.58594   -1373.1323   -8407.0451 
 6100000    1.1525234    300.55957    452.81231   -8348.0095 
 6200000    1.1525234    306.71979    196.15167   -8406.9191 
 6300000    1.1525234    297.28851    1042.0558   -8372.9946 
 6400000    1.1525234     286.5572   -361.01974   -8430.2612 
 6500000    1.1525234       314.71   -159.94557   -8356.4683 
 6600000    1.1525234    292.55884    263.89582   -8407.0779 
 6700000    1.1525234    288.76067    578.42475   -8381.0888 
 6800000    1.1525234    312.46028   -807.88216   -8337.5115 
 6900000    1.1525234    297.01859    149.00546   -8380.4749 
 7000000    1.1525234    296.80564   -94.423931   -8421.0333 
Loop time of 5110.09 on 12 procs for 1000000 steps with 1572 atoms

Performance: 33.815 ns/day, 0.710 hours/ns, 195.691 timesteps/s
93.4% CPU use with 12 MPI tasks x no OpenMP threads

MPI task timing breakdown:
Section |  min time  |  avg time  |  max time  |%varavg| %total
---------------------------------------------------------------
Pair    | 2803.5     | 3060.6     | 3218.4     | 272.6 | 59.89
Bond    | 13.118     | 13.408     | 13.655     |   3.8 |  0.26
Kspace  | 1252.2     | 1410       | 1668.5     | 402.7 | 27.59
Neigh   | 162.07     | 162.28     | 162.42     |   0.8 |  3.18
Comm    | 154.38     | 155.72     | 156.87     |   6.1 |  3.05
Output  | 0.33913    | 0.33999    | 0.34137    |   0.1 |  0.01
Modify  | 287.11     | 288.14     | 288.77     |   3.0 |  5.64
Other   |            | 19.63      |            |       |  0.38

Nlocal:    131 ave 143 max 114 min
Histogram: 1 0 0 1 2 3 2 0 1 2
Nghost:    4220.17 ave 4282 max 4157 min
Histogram: 2 0 2 0 2 0 3 1 1 1
Neighs:    47673.4 ave 54441 max 39313 min
Histogram: 1 0 0 2 1 3 1 2 1 1

Total # of neighbors = 572081
Ave neighs/atom = 363.919
Ave special neighs/atom = 1.9084
Neighbor list builds = 79386
Dangerous builds = 0
shell bash copy_files.sh dt_${tstep} 07.00Mstep
shell bash copy_files.sh dt_2 07.00Mstep

run ${Nrun2}
run 1000000
PPPM initialization ...
  extracting TIP4P info from pair style
  using 12-bit tables for long-range coulomb (../kspace.cpp:321)
  G vector (1/distance) = 0.310397
  grid = 24 24 24
  stencil order = 5
  estimated absolute RMS force accuracy = 0.00365983
  estimated relative force accuracy = 1.10215e-05
  using double precision FFTs
  3d grid and FFT values/proc = 5415 1152
Per MPI rank memory allocation (min/avg/max) = 14.31 | 14.31 | 14.32 Mbytes
Step Density Temp Press TotEng 
 7000000    1.1525234    296.80564   -93.734902   -8421.0333 
 7100000    1.1525234    295.10334   -834.70608   -8422.4779 
 7200000    1.1525234    308.69278    116.19481   -8321.4238 
 7300000    1.1525234    308.62658     338.2472   -8335.5786 
 7400000    1.1525234    288.44474    122.93137   -8366.8017 
 7500000    1.1525234    314.45223    154.80302   -8274.7477 
 7600000    1.1525234    288.02132    558.55251    -8394.549 
 7700000    1.1525234    290.83239    202.50294   -8423.7223 
 7800000    1.1525234    296.44015    38.675094   -8463.7231 
 7900000    1.1525234    295.14489    315.88209   -8433.7355 
 8000000    1.1525234    300.46064    266.59805    -8359.339 
Loop time of 5107.32 on 12 procs for 1000000 steps with 1572 atoms

Performance: 33.834 ns/day, 0.709 hours/ns, 195.798 timesteps/s
93.4% CPU use with 12 MPI tasks x no OpenMP threads

MPI task timing breakdown:
Section |  min time  |  avg time  |  max time  |%varavg| %total
---------------------------------------------------------------
Pair    | 2829.1     | 3056.3     | 3246.2     | 268.1 | 59.84
Bond    | 13.179     | 13.439     | 13.617     |   3.7 |  0.26
Kspace  | 1221.2     | 1411.1     | 1638.1     | 395.6 | 27.63
Neigh   | 162.13     | 162.32     | 162.45     |   0.8 |  3.18
Comm    | 154.56     | 155.76     | 156.96     |   5.9 |  3.05
Output  | 0.33864    | 0.33948    | 0.34058    |   0.1 |  0.01
Modify  | 287.17     | 288.33     | 289.15     |   3.3 |  5.65
Other   |            | 19.72      |            |       |  0.39

Nlocal:    131 ave 140 max 119 min
Histogram: 3 0 0 1 0 2 0 1 2 3
Nghost:    4206.42 ave 4294 max 4125 min
Histogram: 3 1 0 0 2 2 1 0 1 2
Neighs:    47711.1 ave 53887 max 40917 min
Histogram: 1 0 3 1 0 2 1 2 0 2

Total # of neighbors = 572533
Ave neighs/atom = 364.207
Ave special neighs/atom = 1.9084
Neighbor list builds = 79467
Dangerous builds = 0
shell bash copy_files.sh dt_${tstep} 08.00Mstep
shell bash copy_files.sh dt_2 08.00Mstep

run ${Nrun2}
run 1000000
PPPM initialization ...
  extracting TIP4P info from pair style
  using 12-bit tables for long-range coulomb (../kspace.cpp:321)
  G vector (1/distance) = 0.310397
  grid = 24 24 24
  stencil order = 5
  estimated absolute RMS force accuracy = 0.00365983
  estimated relative force accuracy = 1.10215e-05
  using double precision FFTs
  3d grid and FFT values/proc = 5415 1152
Per MPI rank memory allocation (min/avg/max) = 14.31 | 14.31 | 14.32 Mbytes
Step Density Temp Press TotEng 
 8000000    1.1525234    300.46064    267.15584    -8359.339 
 8100000    1.1525234    299.31386   -10.501066   -8366.2992 
 8200000    1.1525234    298.35241    762.47069   -8343.1404 
 8300000    1.1525234    306.57065   -386.17796   -8369.8068 
 8400000    1.1525234    309.52503    406.49489   -8355.6805 
 8500000    1.1525234    289.44588    -557.1962   -8403.4915 
 8600000    1.1525234     296.5359    110.70824    -8291.142 
 8700000    1.1525234    300.40326   -803.19444   -8330.6399 
 8800000    1.1525234    305.34605    122.34436   -8328.8864 
 8900000    1.1525234     304.4228   -140.89046   -8361.6403 
 9000000    1.1525234    296.86792   -891.94765   -8418.4693 
Loop time of 5116.38 on 12 procs for 1000000 steps with 1572 atoms

Performance: 33.774 ns/day, 0.711 hours/ns, 195.451 timesteps/s
93.3% CPU use with 12 MPI tasks x no OpenMP threads

MPI task timing breakdown:
Section |  min time  |  avg time  |  max time  |%varavg| %total
---------------------------------------------------------------
Pair    | 2831.4     | 3063.7     | 3296.2     | 268.8 | 59.88
Bond    | 13.14      | 13.422     | 13.587     |   3.5 |  0.26
Kspace  | 1180.3     | 1412.9     | 1646.5     | 396.8 | 27.62
Neigh   | 162.23     | 162.42     | 162.57     |   0.8 |  3.17
Comm    | 154.22     | 155.59     | 156.79     |   6.2 |  3.04
Output  | 0.33938    | 0.34028    | 0.34154    |   0.1 |  0.01
Modify  | 287.29     | 288.38     | 289.08     |   3.1 |  5.64
Other   |            | 19.6       |            |       |  0.38

Nlocal:    131 ave 144 max 125 min
Histogram: 2 2 3 2 1 1 0 0 0 1
Nghost:    4217.42 ave 4253 max 4151 min
Histogram: 1 0 1 0 1 1 1 3 2 2
Neighs:    47691.3 ave 56762 max 42620 min
Histogram: 1 3 1 3 1 1 1 0 0 1

Total # of neighbors = 572296
Ave neighs/atom = 364.056
Ave special neighs/atom = 1.9084
Neighbor list builds = 79436
Dangerous builds = 0
shell bash copy_files.sh dt_${tstep} 09.00Mstep
shell bash copy_files.sh dt_2 09.00Mstep

run ${Nrun2}
run 1000000
PPPM initialization ...
  extracting TIP4P info from pair style
  using 12-bit tables for long-range coulomb (../kspace.cpp:321)
  G vector (1/distance) = 0.310397
  grid = 24 24 24
  stencil order = 5
  estimated absolute RMS force accuracy = 0.00365983
  estimated relative force accuracy = 1.10215e-05
  using double precision FFTs
  3d grid and FFT values/proc = 5415 1152
Per MPI rank memory allocation (min/avg/max) = 14.31 | 14.31 | 14.32 Mbytes
Step Density Temp Press TotEng 
 9000000    1.1525234    296.86792   -891.32791   -8418.4693 
 9100000    1.1525234    302.09318    953.91095   -8424.4524 
 9200000    1.1525234    284.00274   -222.49984   -8391.5303 
 9300000    1.1525234    300.36564    495.25148   -8371.8084 
 9400000    1.1525234    297.50383   -70.599604   -8376.4666 
 9500000    1.1525234    296.50132    3.5081304   -8343.9916 
 9600000    1.1525234    291.43963    116.19437   -8391.5847 
 9700000    1.1525234    286.72411   -1440.2181   -8426.5312 
 9800000    1.1525234    295.82873    140.94736   -8325.4826 
 9900000    1.1525234    296.50147   -556.94741   -8439.8948 
10000000    1.1525234    301.31489    70.570335   -8365.2688 
Loop time of 5133.3 on 12 procs for 1000000 steps with 1572 atoms

Performance: 33.663 ns/day, 0.713 hours/ns, 194.806 timesteps/s
93.2% CPU use with 12 MPI tasks x no OpenMP threads

MPI task timing breakdown:
Section |  min time  |  avg time  |  max time  |%varavg| %total
---------------------------------------------------------------
Pair    | 2817.8     | 3060.9     | 3321.3     | 282.7 | 59.63
Bond    | 13.18      | 13.416     | 13.546     |   2.9 |  0.26
Kspace  | 1171.5     | 1432.2     | 1675       | 414.2 | 27.90
Neigh   | 162.68     | 162.86     | 162.99     |   0.7 |  3.17
Comm    | 154.59     | 155.74     | 156.91     |   6.2 |  3.03
Output  | 0.34036    | 0.34118    | 0.34281    |   0.1 |  0.01
Modify  | 287.03     | 288.22     | 289.08     |   3.4 |  5.61
Other   |            | 19.68      |            |       |  0.38

Nlocal:    131 ave 145 max 120 min
Histogram: 2 2 0 1 3 1 0 0 2 1
Nghost:    4205.5 ave 4240 max 4150 min
Histogram: 1 0 0 2 0 1 2 3 2 1
Neighs:    47720.8 ave 56329 max 40251 min
Histogram: 2 1 0 1 1 4 2 0 0 1

Total # of neighbors = 572649
Ave neighs/atom = 364.281
Ave special neighs/atom = 1.9084
Neighbor list builds = 79487
Dangerous builds = 0
shell bash copy_files.sh dt_${tstep} 10.00Mstep
shell bash copy_files.sh dt_2 10.00Mstep

run ${Nrun3}
run 2500000
PPPM initialization ...
  extracting TIP4P info from pair style
  using 12-bit tables for long-range coulomb (../kspace.cpp:321)
  G vector (1/distance) = 0.310397
  grid = 24 24 24
  stencil order = 5
  estimated absolute RMS force accuracy = 0.00365983
  estimated relative force accuracy = 1.10215e-05
  using double precision FFTs
  3d grid and FFT values/proc = 5415 1152
Per MPI rank memory allocation (min/avg/max) = 14.31 | 14.31 | 14.32 Mbytes
Step Density Temp Press TotEng 
10000000    1.1525234    301.31489    71.083764   -8365.2688 
10100000    1.1525234    291.83253    668.34839   -8355.1025 
10200000    1.1525234    297.97484    21.693159    -8385.814 
10300000    1.1525234    300.01438    59.614766   -8437.6625 
10400000    1.1525234    303.36816    820.54084   -8349.5158 
10500000    1.1525234    305.82431   -388.37565   -8351.8236 
10600000    1.1525234     286.2851   -200.70948   -8457.2178 
10700000    1.1525234    298.82485   -513.50555   -8406.5876 
10800000    1.1525234    285.20707   -1125.8949   -8476.5432 
10900000    1.1525234    294.19495   -241.82551   -8417.4878 
11000000    1.1525234    289.78926    1117.3693   -8405.4608 
11100000    1.1525234    305.70414    -552.9391   -8338.0164 
11200000    1.1525234    292.24136   -502.31634   -8349.5835 
11300000    1.1525234    293.06469    774.48394   -8393.7209 
11400000    1.1525234    302.63573    90.727323    -8371.475 
11500000    1.1525234    296.96905   -372.20381   -8391.2011 
11600000    1.1525234    307.38446    86.148995   -8333.7087 
11700000    1.1525234    299.88595       717.26   -8370.1687 
11800000    1.1525234    296.98647   -84.353182   -8430.9867 
11900000    1.1525234    296.86219     853.8895   -8441.0784 
12000000    1.1525234    305.33915   -227.19542   -8356.7083 
12100000    1.1525234    304.28316   -464.36268   -8383.1477 
12200000    1.1525234    301.92199     379.1496   -8408.1587 
12300000    1.1525234    307.21144    363.23794   -8341.9426 
12400000    1.1525234    304.64361    535.07585   -8373.0566 
12500000    1.1525234    288.98589   -154.15263   -8355.0204 
Loop time of 12748 on 12 procs for 2500000 steps with 1572 atoms

Performance: 33.888 ns/day, 0.708 hours/ns, 196.110 timesteps/s
93.5% CPU use with 12 MPI tasks x no OpenMP threads

MPI task timing breakdown:
Section |  min time  |  avg time  |  max time  |%varavg| %total
---------------------------------------------------------------
Pair    | 7098.3     | 7647.1     | 8097       | 385.2 | 59.99
Bond    | 33.084     | 33.669     | 34.221     |   5.0 |  0.26
Kspace  | 3050.8     | 3501       | 4052.8     | 570.9 | 27.46
Neigh   | 405.28     | 405.75     | 406.07     |   1.2 |  3.18
Comm    | 385.95     | 389.24     | 392.24     |   9.5 |  3.05
Output  | 0.8491     | 0.85142    | 0.85516    |   0.1 |  0.01
Modify  | 718.36     | 721.07     | 722.8      |   4.9 |  5.66
Other   |            | 49.23      |            |       |  0.39

Nlocal:    131 ave 135 max 124 min
Histogram: 2 1 0 0 1 0 2 0 1 5
Nghost:    4171.83 ave 4210 max 4112 min
Histogram: 1 0 1 1 2 1 1 0 2 3
Neighs:    47710.2 ave 51372 max 42372 min
Histogram: 1 0 1 2 1 1 1 0 3 2

Total # of neighbors = 572522
Ave neighs/atom = 364.2
Ave special neighs/atom = 1.9084
Neighbor list builds = 198723
Dangerous builds = 0
shell bash copy_files.sh dt_${tstep} 12.50Mstep
shell bash copy_files.sh dt_2 12.50Mstep

run ${Nrun3}
run 2500000
PPPM initialization ...
  extracting TIP4P info from pair style
  using 12-bit tables for long-range coulomb (../kspace.cpp:321)
  G vector (1/distance) = 0.310397
  grid = 24 24 24
  stencil order = 5
  estimated absolute RMS force accuracy = 0.00365983
  estimated relative force accuracy = 1.10215e-05
  using double precision FFTs
  3d grid and FFT values/proc = 5415 1152
Per MPI rank memory allocation (min/avg/max) = 14.31 | 14.31 | 14.32 Mbytes
Step Density Temp Press TotEng 
12500000    1.1525234    288.98589   -154.09262   -8355.0204 
12600000    1.1525234    300.94664    255.67916   -8434.0605 
12700000    1.1525234    315.52086   -169.01661   -8421.5133 
12800000    1.1525234    293.38183   -166.79776   -8455.0998 
12900000    1.1525234    296.33992    257.13679   -8424.3701 
13000000    1.1525234    303.72446    388.10415   -8339.9172 
13100000    1.1525234    300.75945  -0.30700994   -8355.1816 
13200000    1.1525234    308.77758    151.35633   -8375.5006 
13300000    1.1525234    301.61663    543.73453   -8372.9662 
13400000    1.1525234    300.95257   -733.25678    -8371.987 
13500000    1.1525234    300.71124   -945.54293   -8341.3818 
13600000    1.1525234    299.44556    450.01555   -8401.7745 
13700000    1.1525234    302.43284   -42.911437   -8436.5605 
13800000    1.1525234    281.85523   -699.44997   -8451.0088 
13900000    1.1525234    310.17841    290.20426   -8346.1909 
14000000    1.1525234    293.04186    285.22497   -8412.5874 
14100000    1.1525234    302.20516   -54.040351   -8421.2373 
14200000    1.1525234    294.33602   -144.27832   -8400.4221 
14300000    1.1525234        298.4    854.47327   -8400.4528 
14400000    1.1525234    289.83722   -1014.5972   -8440.3761 
14500000    1.1525234    302.80411   -603.08998   -8340.7928 
14600000    1.1525234    308.39741   -142.98303   -8349.3777 
14700000    1.1525234    291.51955     416.1027   -8361.5379 
14800000    1.1525234    298.97109    181.10757   -8413.2854 
14900000    1.1525234    299.00057    909.23531    -8330.914 
15000000    1.1525234    300.98506    159.84522   -8341.6841 
Loop time of 12803.4 on 12 procs for 2500000 steps with 1572 atoms

Performance: 33.741 ns/day, 0.711 hours/ns, 195.260 timesteps/s
93.3% CPU use with 12 MPI tasks x no OpenMP threads

MPI task timing breakdown:
Section |  min time  |  avg time  |  max time  |%varavg| %total
---------------------------------------------------------------
Pair    | 7086.1     | 7645.2     | 8241.5     | 423.3 | 59.71
Bond    | 32.858     | 33.568     | 34.093     |   6.0 |  0.26
Kspace  | 2962.4     | 3559.2     | 4121.3     | 622.0 | 27.80
Neigh   | 404.74     | 405.21     | 405.55     |   1.2 |  3.16
Comm    | 386.03     | 389.18     | 392.26     |   9.8 |  3.04
Output  | 0.84865    | 0.84991    | 0.85325    |   0.1 |  0.01
Modify  | 717.93     | 720.8      | 722.77     |   5.2 |  5.63
Other   |            | 49.36      |            |       |  0.39

Nlocal:    131 ave 140 max 118 min
Histogram: 1 0 1 1 0 2 2 3 1 1
Nghost:    4193.92 ave 4240 max 4129 min
Histogram: 1 2 0 0 2 1 0 1 3 2
Neighs:    47686.1 ave 50681 max 42372 min
Histogram: 1 0 1 1 0 1 1 2 4 1

Total # of neighbors = 572233
Ave neighs/atom = 364.016
Ave special neighs/atom = 1.9084
Neighbor list builds = 198501
Dangerous builds = 0
shell bash copy_files.sh dt_${tstep} 15.00Mstep
shell bash copy_files.sh dt_2 15.00Mstep

run ${Nrun3}
run 2500000
PPPM initialization ...
  extracting TIP4P info from pair style
  using 12-bit tables for long-range coulomb (../kspace.cpp:321)
  G vector (1/distance) = 0.310397
  grid = 24 24 24
  stencil order = 5
  estimated absolute RMS force accuracy = 0.00365983
  estimated relative force accuracy = 1.10215e-05
  using double precision FFTs
  3d grid and FFT values/proc = 5415 1152
Per MPI rank memory allocation (min/avg/max) = 14.31 | 14.31 | 14.32 Mbytes
Step Density Temp Press TotEng 
15000000    1.1525234    300.98506    160.35137   -8341.6841 
15100000    1.1525234    306.56855   -88.383952   -8406.4894 
15200000    1.1525234    299.51599   -84.945426   -8402.4784 
15300000    1.1525234    297.58263    568.16743   -8349.5878 
15400000    1.1525234     311.0867   -99.609398    -8322.763 
15500000    1.1525234    293.42014     1.197472   -8383.7271 
15600000    1.1525234    299.48954   -540.77229   -8373.3859 
15700000    1.1525234    295.75318   -425.25742   -8417.4214 
15800000    1.1525234    300.09881    204.11069   -8420.1877 
15900000    1.1525234    302.08094    298.30713   -8355.6872 
16000000    1.1525234    303.52054     678.0654   -8363.7337 
16100000    1.1525234    301.96806    148.56132   -8381.5971 
16200000    1.1525234    290.95217   -225.32035   -8485.5687 
16300000    1.1525234    283.26019   -639.14433   -8406.5557 
16400000    1.1525234     308.0095   -316.56949   -8356.3545 
16500000    1.1525234    290.59777    758.53086   -8450.6008 
16600000    1.1525234    294.12224   -462.21998   -8399.6576 
16700000    1.1525234    300.53782    212.88889   -8344.2205 
16800000    1.1525234    313.74781   -866.99824   -8384.3062 
16900000    1.1525234    312.17408     889.7181   -8358.0023 
17000000    1.1525234    294.59139    731.75922    -8386.085 
17100000    1.1525234     302.6818    83.110588   -8382.9048 
17200000    1.1525234    302.02675    687.10218   -8315.0724 
17300000    1.1525234    295.67218    33.424823   -8446.9973 
17400000    1.1525234     301.6836    1291.2572   -8360.6444 
17500000    1.1525234    307.37507   -29.092308   -8363.1479 
Loop time of 12753.4 on 12 procs for 2500000 steps with 1572 atoms

Performance: 33.873 ns/day, 0.709 hours/ns, 196.026 timesteps/s
93.4% CPU use with 12 MPI tasks x no OpenMP threads

MPI task timing breakdown:
Section |  min time  |  avg time  |  max time  |%varavg| %total
---------------------------------------------------------------
Pair    | 7104       | 7635.4     | 8138.9     | 421.7 | 59.87
Bond    | 32.948     | 33.588     | 33.935     |   5.0 |  0.26
Kspace  | 3016.1     | 3520       | 4050.7     | 622.7 | 27.60
Neigh   | 404.6      | 405.06     | 405.39     |   1.2 |  3.18
Comm    | 385.72     | 389.06     | 391.89     |   9.4 |  3.05
Output  | 0.84781    | 0.84955    | 0.85301    |   0.1 |  0.01
Modify  | 717.66     | 720.28     | 722.01     |   4.9 |  5.65
Other   |            | 49.2       |            |       |  0.39

Nlocal:    131 ave 138 max 126 min
Histogram: 2 2 0 1 2 3 0 0 1 1
Nghost:    4198.33 ave 4231 max 4153 min
Histogram: 1 1 0 1 2 1 1 1 2 2
Neighs:    47681.3 ave 50236 max 43856 min
Histogram: 2 1 0 0 0 1 2 1 4 1

Total # of neighbors = 572176
Ave neighs/atom = 363.98
Ave special neighs/atom = 1.9084
Neighbor list builds = 198493
Dangerous builds = 0
shell bash copy_files.sh dt_${tstep} 17.50Mstep
shell bash copy_files.sh dt_2 17.50Mstep

run ${Nrun3}
run 2500000
PPPM initialization ...
  extracting TIP4P info from pair style
  using 12-bit tables for long-range coulomb (../kspace.cpp:321)
  G vector (1/distance) = 0.310397
  grid = 24 24 24
  stencil order = 5
  estimated absolute RMS force accuracy = 0.00365983
  estimated relative force accuracy = 1.10215e-05
  using double precision FFTs
  3d grid and FFT values/proc = 5415 1152
Per MPI rank memory allocation (min/avg/max) = 14.31 | 14.31 | 14.32 Mbytes
Step Density Temp Press TotEng 
17500000    1.1525234    307.37507   -29.074267   -8363.1479 
17600000    1.1525234    298.51668     -704.336   -8380.2652 
17700000    1.1525234    296.75438    221.62761   -8416.9805 
17800000    1.1525234    294.52867   -274.70217   -8417.5297 
17900000    1.1525234    291.47565    16.815926    -8394.183 
18000000    1.1525234    294.46378    7.9755237   -8426.0693 
18100000    1.1525234    302.32283   -391.52916   -8330.7287 
18200000    1.1525234    294.34417    923.79113   -8346.7077 
18300000    1.1525234    301.97659    110.41948    -8392.539 
18400000    1.1525234    283.02467   -551.93805   -8415.9701 
18500000    1.1525234    301.96479    509.75475   -8391.3239 
18600000    1.1525234    309.48988   -785.39211   -8390.0746 
18700000    1.1525234    295.02609   -604.87879   -8338.1559 
18800000    1.1525234    295.42412    848.00558   -8445.0974 
18900000    1.1525234    309.51956    299.22106   -8396.2845 
19000000    1.1525234    288.98738    361.08707   -8405.9368 
19100000    1.1525234    302.97725   -1154.9199   -8357.9254 
19200000    1.1525234    290.29858    64.347133   -8403.9343 
19300000    1.1525234    301.48048    55.702747   -8385.9532 
19400000    1.1525234    296.85968   -694.08507   -8393.1117 
19500000    1.1525234    297.08638   -1427.3198   -8386.8831 
19600000    1.1525234    314.51974    148.74231   -8305.1027 
19700000    1.1525234    293.18384   -237.90986   -8411.5176 
19800000    1.1525234    296.93217    508.65126   -8442.5094 
19900000    1.1525234    299.77351    408.00423    -8398.941 
20000000    1.1525234    298.15477   -404.04399   -8391.5436 
Loop time of 12776 on 12 procs for 2500000 steps with 1572 atoms

Performance: 33.813 ns/day, 0.710 hours/ns, 195.680 timesteps/s
93.4% CPU use with 12 MPI tasks x no OpenMP threads

MPI task timing breakdown:
Section |  min time  |  avg time  |  max time  |%varavg| %total
---------------------------------------------------------------
Pair    | 7169.7     | 7656.1     | 8186.4     | 386.1 | 59.93
Bond    | 33.049     | 33.635     | 33.995     |   4.7 |  0.26
Kspace  | 2989.9     | 3520.8     | 4006.5     | 570.8 | 27.56
Neigh   | 405.49     | 405.95     | 406.28     |   1.2 |  3.18
Comm    | 385.87     | 389.04     | 391.73     |   9.3 |  3.05
Output  | 0.84786    | 0.84913    | 0.85285    |   0.1 |  0.01
Modify  | 717.68     | 720.46     | 722.18     |   5.0 |  5.64
Other   |            | 49.14      |            |       |  0.38

Nlocal:    131 ave 141 max 121 min
Histogram: 2 1 2 0 0 2 0 1 2 2
Nghost:    4231.42 ave 4327 max 4143 min
Histogram: 2 2 1 1 0 0 2 2 1 1
Neighs:    47710.7 ave 52891 max 40643 min
Histogram: 1 0 0 3 1 2 1 0 1 3

Total # of neighbors = 572528
Ave neighs/atom = 364.204
Ave special neighs/atom = 1.9084
Neighbor list builds = 198568
Dangerous builds = 0
shell bash copy_files.sh dt_${tstep} 20.00Mstep
shell bash copy_files.sh dt_2 20.00Mstep

run ${Nrun4}
run 5000000
PPPM initialization ...
  extracting TIP4P info from pair style
  using 12-bit tables for long-range coulomb (../kspace.cpp:321)
  G vector (1/distance) = 0.310397
  grid = 24 24 24
  stencil order = 5
  estimated absolute RMS force accuracy = 0.00365983
  estimated relative force accuracy = 1.10215e-05
  using double precision FFTs
  3d grid and FFT values/proc = 5415 1152
Per MPI rank memory allocation (min/avg/max) = 14.31 | 14.31 | 14.32 Mbytes
Step Density Temp Press TotEng 
20000000    1.1525234    298.15477   -404.56004   -8391.5436 
20100000    1.1525234    308.26978    337.99878   -8362.8131 
20200000    1.1525234    287.88926    653.33397    -8381.002 
20300000    1.1525234    289.60144    410.88157    -8471.327 
20400000    1.1525234    301.60229    700.86733   -8336.9883 
20500000    1.1525234    293.05203    296.16814    -8403.479 
20600000    1.1525234    308.18752    53.799146   -8408.2271 
20700000    1.1525234    303.27753   -386.56611   -8387.5362 
20800000    1.1525234    281.60619    1000.6253   -8418.3108 
20900000    1.1525234    298.93255    270.97933   -8437.2512 
21000000    1.1525234    303.58569   -1116.0013   -8364.5899 
21100000    1.1525234    302.63188   -364.92963   -8412.7797 
21200000    1.1525234    286.07725   -316.23825   -8422.6601 
21300000    1.1525234    299.41885    217.51015   -8437.3125 
21400000    1.1525234     302.2349   -38.996671   -8410.5202 
21500000    1.1525234    301.44243    835.65159   -8399.3904 
21600000    1.1525234    294.42285    249.82377   -8437.5037 
21700000    1.1525234    312.97397   -333.94201   -8336.8491 
21800000    1.1525234     306.2879    184.62276   -8442.5614 
21900000    1.1525234    293.01433   -424.96805   -8350.6147 
22000000    1.1525234    304.16456    717.43117   -8387.8311 
22100000    1.1525234    300.98948    577.11886   -8389.4259 
22200000    1.1525234     300.4999   -102.77683   -8374.6464 
22300000    1.1525234    290.95564   -80.518416   -8438.6463 
22400000    1.1525234    297.25232    413.01198   -8371.4111 
22500000    1.1525234    296.07713    893.72033   -8370.5415 
22600000    1.1525234    299.07051    244.34957   -8440.7438 
22700000    1.1525234    304.70477    340.69906   -8363.2147 
22800000    1.1525234    293.71324    528.60157    -8442.675 
22900000    1.1525234    295.76976     277.5923   -8392.8657 
23000000    1.1525234    289.38216    373.00818   -8392.5555 
23100000    1.1525234    300.30809   -35.521144   -8412.9227 
23200000    1.1525234     301.6641    285.60833   -8415.1091 
23300000    1.1525234     303.2153    61.203031   -8364.9818 
23400000    1.1525234    298.41028    551.41551   -8389.2215 
23500000    1.1525234    304.53039    289.54822   -8425.9384 
23600000    1.1525234    290.46139   -423.84703   -8478.6008 
23700000    1.1525234    290.71238    480.27191   -8407.6603 
23800000    1.1525234    295.74446    173.34431   -8452.7543 
23900000    1.1525234    284.61924   -490.11021   -8486.5418 
24000000    1.1525234    308.98227    9.3911466   -8393.9794 
24100000    1.1525234    289.29079    155.17937   -8419.1215 
24200000    1.1525234    309.91072    894.98134   -8391.4198 
24300000    1.1525234    299.27501   -524.52559   -8374.5064 
24400000    1.1525234    312.26552   -559.76049   -8316.2485 
24500000    1.1525234    299.92291   -679.53774   -8347.0947 
24600000    1.1525234    302.64983   -363.85013   -8367.8925 
24700000    1.1525234    292.19758    -977.1758   -8399.9697 
24800000    1.1525234    310.99786   -64.702928   -8371.1074 
24900000    1.1525234    296.89825    846.99796   -8449.8269 
25000000    1.1525234    295.27149    78.171318   -8391.0822 
Loop time of 25542 on 12 procs for 5000000 steps with 1572 atoms

Performance: 33.827 ns/day, 0.710 hours/ns, 195.756 timesteps/s
93.3% CPU use with 12 MPI tasks x no OpenMP threads

MPI task timing breakdown:
Section |  min time  |  avg time  |  max time  |%varavg| %total
---------------------------------------------------------------
Pair    | 14057      | 15247      | 16357      | 614.3 | 59.70
Bond    | 65.672     | 67.027     | 67.764     |   7.0 |  0.26
Kspace  | 5985.1     | 7096.5     | 8287.2     | 902.5 | 27.78
Neigh   | 811.11     | 812.09     | 812.77     |   1.8 |  3.18
Comm    | 772.25     | 778.22     | 783.88     |  13.1 |  3.05
Output  | 1.7057     | 1.7091     | 1.7157     |   0.2 |  0.01
Modify  | 1435.3     | 1440.7     | 1444.4     |   7.0 |  5.64
Other   |            | 98.4       |            |       |  0.39

Nlocal:    131 ave 143 max 118 min
Histogram: 2 0 2 0 0 2 3 1 0 2
Nghost:    4201.5 ave 4248 max 4157 min
Histogram: 2 0 0 4 1 0 2 1 1 1
Neighs:    47674.6 ave 54675 max 40274 min
Histogram: 1 0 2 3 0 1 1 2 1 1

Total # of neighbors = 572095
Ave neighs/atom = 363.928
Ave special neighs/atom = 1.9084
Neighbor list builds = 397236
Dangerous builds = 0
shell bash copy_files.sh dt_${tstep} 25.00Mstep
shell bash copy_files.sh dt_2 25.00Mstep

run ${Nrun4}
run 5000000
PPPM initialization ...
  extracting TIP4P info from pair style
  using 12-bit tables for long-range coulomb (../kspace.cpp:321)
  G vector (1/distance) = 0.310397
  grid = 24 24 24
  stencil order = 5
  estimated absolute RMS force accuracy = 0.00365983
  estimated relative force accuracy = 1.10215e-05
  using double precision FFTs
  3d grid and FFT values/proc = 5415 1152
Per MPI rank memory allocation (min/avg/max) = 14.31 | 14.32 | 14.32 Mbytes
Step Density Temp Press TotEng 
25000000    1.1525234    295.27149    78.805818   -8391.0822 
25100000    1.1525234    288.72373    63.950031   -8492.8673 
25200000    1.1525234    311.16261    19.306064   -8354.6353 
25300000    1.1525234      299.892   -162.88214   -8360.3784 
25400000    1.1525234    295.65301    -114.3352    -8426.416 
25500000    1.1525234    291.36997    331.88755   -8406.3449 
25600000    1.1525234    296.27909    725.28945   -8396.7059 
25700000    1.1525234    302.65967   -259.41315    -8402.891 
25800000    1.1525234    289.10354   -700.75572    -8382.766 
25900000    1.1525234     291.6025    676.45307     -8419.44 
26000000    1.1525234    305.17474    536.91621   -8323.2856 
26100000    1.1525234    304.13036    722.51656   -8374.4781 
26200000    1.1525234    291.66081    190.82228   -8470.9702 
26300000    1.1525234    295.17231   -378.18296   -8381.2557 
26400000    1.1525234    296.06104     107.6626   -8385.1045 
26500000    1.1525234    302.62937   -164.53384   -8318.5703 
26600000    1.1525234    283.72479   -640.57683   -8394.2904 
26700000    1.1525234    305.39186    147.66556   -8436.7389 
26800000    1.1525234     292.7271    319.53873   -8389.4981 
26900000    1.1525234    298.69912   -395.00317   -8352.3022 
27000000    1.1525234    286.86885   -41.336546   -8448.9945 
27100000    1.1525234    292.40236   -165.91615   -8379.0984 
27200000    1.1525234    289.61555   -101.40345   -8427.2771 
27300000    1.1525234    311.92051      152.202   -8392.1791 
27400000    1.1525234    296.38467    430.73999   -8384.7117 
27500000    1.1525234    299.50594    208.66198   -8386.2655 
27600000    1.1525234    295.20272   -588.31242   -8430.5103 
27700000    1.1525234    290.78779    272.21826   -8444.0817 
27800000    1.1525234    307.59092   -1310.0809   -8359.0081 
27900000    1.1525234    302.94083   -304.93018   -8350.6115 
28000000    1.1525234        308.2    45.552655   -8463.8191 
28100000    1.1525234    301.63063    1150.4657   -8422.9412 
28200000    1.1525234    291.96574    450.17452   -8384.0256 
28300000    1.1525234    283.05163    17.705525   -8475.2644 
28400000    1.1525234    294.87206   -518.14165   -8483.2915 
28500000    1.1525234    299.00175   -63.643017   -8385.7203 
28600000    1.1525234    309.29275    1208.7416   -8342.2872 
28700000    1.1525234    293.49719     7.623453   -8390.9888 
28800000    1.1525234     306.7995   -1309.7446   -8356.0419 
28900000    1.1525234    277.45747    70.913895   -8482.9376 
29000000    1.1525234    299.75891   -1177.0444   -8384.2151 
29100000    1.1525234    297.44708   -344.39681   -8431.2953 
29200000    1.1525234    302.88031   -60.577649    -8380.969 
29300000    1.1525234    294.49355    328.73613   -8426.7075 
29400000    1.1525234    287.75354   -450.33361   -8476.2912 
29500000    1.1525234     295.3704   -867.20845   -8437.2758 
29600000    1.1525234    299.80878    728.32617   -8391.1278 
29700000    1.1525234    295.38696    262.76175   -8381.5757 
29800000    1.1525234    298.47396   -155.70593   -8388.5487 
29900000    1.1525234     299.7591    738.89705   -8392.3455 
30000000    1.1525234    311.77975    -659.6873   -8367.9803 
Loop time of 25672.7 on 12 procs for 5000000 steps with 1572 atoms

Performance: 33.654 ns/day, 0.713 hours/ns, 194.760 timesteps/s
93.2% CPU use with 12 MPI tasks x no OpenMP threads

MPI task timing breakdown:
Section |  min time  |  avg time  |  max time  |%varavg| %total
---------------------------------------------------------------
Pair    | 14036      | 15287      | 16347      | 594.5 | 59.55
Bond    | 65.795     | 67.175     | 68.097     |   8.0 |  0.26
Kspace  | 6125.3     | 7186.2     | 8443.2     | 869.6 | 27.99
Neigh   | 810.35     | 811.32     | 812.07     |   1.9 |  3.16
Comm    | 772.45     | 778.86     | 784.92     |  13.7 |  3.03
Output  | 1.7078     | 1.7096     | 1.7168     |   0.2 |  0.01
Modify  | 1435.9     | 1441.8     | 1445.4     |   7.4 |  5.62
Other   |            | 98.37      |            |       |  0.38

Nlocal:    131 ave 150 max 116 min
Histogram: 1 1 1 1 3 3 0 1 0 1
Nghost:    4220.75 ave 4298 max 4132 min
Histogram: 1 0 0 2 4 1 1 1 1 1
Neighs:    47692.3 ave 57405 max 39620 min
Histogram: 1 0 2 3 0 2 3 0 0 1

Total # of neighbors = 572308
Ave neighs/atom = 364.064
Ave special neighs/atom = 1.9084
Neighbor list builds = 397274
Dangerous builds = 0
shell bash copy_files.sh dt_${tstep} 30.00Mstep
shell bash copy_files.sh dt_2 30.00Mstep

run ${Nrun4}
run 5000000
PPPM initialization ...
  extracting TIP4P info from pair style
  using 12-bit tables for long-range coulomb (../kspace.cpp:321)
  G vector (1/distance) = 0.310397
  grid = 24 24 24
  stencil order = 5
  estimated absolute RMS force accuracy = 0.00365983
  estimated relative force accuracy = 1.10215e-05
  using double precision FFTs
  3d grid and FFT values/proc = 5415 1152
Per MPI rank memory allocation (min/avg/max) = 14.31 | 14.32 | 14.32 Mbytes
Step Density Temp Press TotEng 
30000000    1.1525234    311.77975   -659.43969   -8367.9803 
30100000    1.1525234    301.65374    11.467329   -8417.0805 
30200000    1.1525234    290.47621    707.99522   -8386.5883 
30300000    1.1525234    305.33252      -68.248    -8354.189 
30400000    1.1525234    289.60935    225.71993   -8457.7245 
30500000    1.1525234    282.37983    861.77311   -8368.7948 
30600000    1.1525234    294.80785    172.81826   -8442.1917 
30700000    1.1525234    301.79136     794.6112   -8358.2505 
30800000    1.1525234    286.69563   -400.82818   -8453.7176 
30900000    1.1525234    297.89668   -730.14698   -8333.3181 
31000000    1.1525234      301.069    -100.3796    -8423.289 
31100000    1.1525234    300.74271     818.1057   -8353.4173 
31200000    1.1525234    296.12989    315.11524    -8386.588 
31300000    1.1525234    301.12874   -1032.5523   -8369.7242 
31400000    1.1525234     300.9132    243.30943    -8375.902 
31500000    1.1525234    290.84056   -223.44834   -8386.3565 
31600000    1.1525234     309.8142   -337.03682   -8306.6968 
31700000    1.1525234    307.35898    435.57998   -8358.9097 
31800000    1.1525234    295.81911    261.74158   -8379.2367 
31900000    1.1525234    295.59635   -71.846054    -8367.507 
32000000    1.1525234    313.08458   -338.27992   -8389.9858 
32100000    1.1525234    279.88503   -61.817765   -8435.1492 
32200000    1.1525234    298.06404   -474.15539   -8451.9629 
32300000    1.1525234     308.5372    707.17283   -8348.8466 
32400000    1.1525234    283.83993   -300.05869   -8381.7055 
32500000    1.1525234    297.82579   -51.069623   -8363.6053 
32600000    1.1525234    306.24711    622.33089    -8441.025 
32700000    1.1525234    298.25422   -11.224254    -8375.564 
32800000    1.1525234    284.90676   -461.75014   -8473.0681 
32900000    1.1525234    305.55481   -313.25417   -8386.1448 
33000000    1.1525234    312.69038   -56.402237    -8368.371 
33100000    1.1525234    292.91603   -633.84262   -8391.9992 
33200000    1.1525234    305.30346    216.51264   -8401.3663 
33300000    1.1525234      295.136   -425.27722   -8401.6408 
33400000    1.1525234    294.03172   -28.773017   -8417.2161 
33500000    1.1525234    285.70852    686.04856   -8411.4375 
33600000    1.1525234    300.72656    279.09075   -8389.1607 
33700000    1.1525234    293.66257    514.14972   -8404.2774 
33800000    1.1525234    284.81595   -941.69083   -8424.7204 
33900000    1.1525234     306.5585    382.06862   -8393.0237 
34000000    1.1525234     292.7935    386.69464   -8424.3569 
34100000    1.1525234    298.40034   -738.12639   -8378.2574 
34200000    1.1525234    292.88329     -192.773   -8419.5084 
34300000    1.1525234    314.77041   -270.55361   -8297.3496 
34400000    1.1525234    303.30907   -163.18804   -8353.4949 
34500000    1.1525234    304.36407    136.75482   -8367.4248 
34600000    1.1525234    297.91618    565.94989   -8337.4534 
34700000    1.1525234    288.23502   -50.719745   -8442.9305 
34800000    1.1525234    296.38607    115.22139   -8354.6556 
34900000    1.1525234    309.45738    602.80067   -8393.1094 
35000000    1.1525234    305.06825   -593.08606   -8390.6636 
Loop time of 25692 on 12 procs for 5000000 steps with 1572 atoms

Performance: 33.629 ns/day, 0.714 hours/ns, 194.613 timesteps/s
93.1% CPU use with 12 MPI tasks x no OpenMP threads

MPI task timing breakdown:
Section |  min time  |  avg time  |  max time  |%varavg| %total
---------------------------------------------------------------
Pair    | 14193      | 15304      | 16209      | 609.7 | 59.57
Bond    | 65.874     | 67.059     | 68.245     |   7.5 |  0.26
Kspace  | 6283.4     | 7189.5     | 8298.6     | 891.6 | 27.98
Neigh   | 811.57     | 812.48     | 813.2      |   1.7 |  3.16
Comm    | 771.78     | 778.13     | 783.75     |  13.3 |  3.03
Output  | 1.696      | 1.6994     | 1.7072     |   0.2 |  0.01
Modify  | 1435.3     | 1440.8     | 1444.8     |   7.3 |  5.61
Other   |            | 98.32      |            |       |  0.38

Nlocal:    131 ave 139 max 115 min
Histogram: 1 0 1 0 1 1 2 1 2 3
Nghost:    4186.5 ave 4248 max 4142 min
Histogram: 3 1 0 2 1 1 2 1 0 1
Neighs:    47702.2 ave 52583 max 42769 min
Histogram: 1 2 0 1 3 1 0 1 1 2

Total # of neighbors = 572427
Ave neighs/atom = 364.139
Ave special neighs/atom = 1.9084
Neighbor list builds = 397229
Dangerous builds = 0
shell bash copy_files.sh dt_${tstep} 35.00Mstep
shell bash copy_files.sh dt_2 35.00Mstep

run ${Nrun4}
run 5000000
PPPM initialization ...
  extracting TIP4P info from pair style
  using 12-bit tables for long-range coulomb (../kspace.cpp:321)
  G vector (1/distance) = 0.310397
  grid = 24 24 24
  stencil order = 5
  estimated absolute RMS force accuracy = 0.00365983
  estimated relative force accuracy = 1.10215e-05
  using double precision FFTs
  3d grid and FFT values/proc = 5415 1152
Per MPI rank memory allocation (min/avg/max) = 14.31 | 14.32 | 14.32 Mbytes
Step Density Temp Press TotEng 
35000000    1.1525234    305.06825   -592.69938   -8390.6636 
35100000    1.1525234    295.45294    487.07963   -8359.2924 
35200000    1.1525234    287.97489    -118.5399   -8380.5719 
35300000    1.1525234    306.42859   -187.89636   -8452.6352 
35400000    1.1525234    299.45435    972.14207   -8441.0382 
35500000    1.1525234    299.70891    783.66727   -8390.3553 
35600000    1.1525234    297.76115    357.35413   -8343.7637 
35700000    1.1525234    300.80067   -752.27482   -8409.0979 
35800000    1.1525234     294.8313    582.23305   -8434.2968 
35900000    1.1525234    289.71294    181.80514   -8395.8409 
36000000    1.1525234    302.74806   -97.566781   -8329.2112 
36100000    1.1525234    300.17817   -268.14176   -8468.6331 
36200000    1.1525234    298.96261    219.07741   -8442.4236 
36300000    1.1525234    299.69343    893.73917   -8401.6515 
36400000    1.1525234     297.7232    1195.2583   -8346.9356 
36500000    1.1525234    304.89491    436.67649   -8387.7987 
36600000    1.1525234    290.55262   -310.43573    -8439.653 
36700000    1.1525234     286.7584   -320.55193   -8443.5543 
36800000    1.1525234    305.58283   -255.02972   -8396.3417 
36900000    1.1525234    302.86994    226.45006   -8418.1585 
37000000    1.1525234     295.6857    181.19445   -8405.3822 
37100000    1.1525234    285.84829   -1079.4186   -8449.1115 
37200000    1.1525234    301.11857    283.09424   -8317.5763 
37300000    1.1525234    300.58185   -132.38238   -8390.8899 
37400000    1.1525234     293.2046    661.85741   -8412.8556 
37500000    1.1525234    301.16486    220.46978   -8443.3815 
37600000    1.1525234    313.86825   -45.907506   -8372.5689 
37700000    1.1525234    295.88015   -598.84396   -8396.1334 
37800000    1.1525234    297.51052  -0.28005237   -8528.3592 
37900000    1.1525234    299.35357    257.11149   -8382.7471 
38000000    1.1525234    303.92742    3.1087407   -8382.2347 
38100000    1.1525234    288.98702     94.08273   -8468.4566 
38200000    1.1525234     293.7814    913.99261   -8449.0305 
38300000    1.1525234    298.35757   -640.31748    -8447.868 
38400000    1.1525234    298.63815   -678.23483   -8378.3006 
38500000    1.1525234    296.24241   -227.04642   -8405.2507 
38600000    1.1525234    298.63578   -80.962924   -8354.5605 
38700000    1.1525234    300.09146    143.84305   -8320.0806 
38800000    1.1525234    313.53301    333.48326   -8362.6079 
38900000    1.1525234    291.08807    41.577949    -8357.801 
39000000    1.1525234    312.78739    391.01072   -8347.2719 
39100000    1.1525234    303.53176    212.29971    -8396.079 
39200000    1.1525234    300.24646    160.07384   -8381.5656 
39300000    1.1525234    303.28362    318.60758   -8350.8208 
39400000    1.1525234    284.75465    111.64841   -8384.0546 
39500000    1.1525234    314.17341    260.97884    -8405.989 
39600000    1.1525234    296.75976    374.00255   -8397.0581 
39700000    1.1525234    312.37718   -113.18819    -8338.296 
39800000    1.1525234    309.16073    234.69931   -8369.0425 
39900000    1.1525234    285.74805   -645.51471   -8410.8962 
40000000    1.1525234    298.04613   -728.22618   -8383.8719 
Loop time of 25699.5 on 12 procs for 5000000 steps with 1572 atoms

Performance: 33.619 ns/day, 0.714 hours/ns, 194.556 timesteps/s
93.2% CPU use with 12 MPI tasks x no OpenMP threads

MPI task timing breakdown:
Section |  min time  |  avg time  |  max time  |%varavg| %total
---------------------------------------------------------------
Pair    | 14198      | 15307      | 16448      | 584.5 | 59.56
Bond    | 65.791     | 67.225     | 67.992     |   7.5 |  0.26
Kspace  | 6052.1     | 7193.2     | 8300       | 854.6 | 27.99
Neigh   | 810.24     | 811.21     | 811.87     |   1.8 |  3.16
Comm    | 772.36     | 778.78     | 784.56     |  12.9 |  3.03
Output  | 1.7075     | 1.7096     | 1.7161     |   0.2 |  0.01
Modify  | 1436.2     | 1441.8     | 1445.3     |   7.2 |  5.61
Other   |            | 98.5       |            |       |  0.38

Nlocal:    131 ave 143 max 121 min
Histogram: 1 1 2 1 1 3 1 0 1 1
Nghost:    4198.67 ave 4293 max 4140 min
Histogram: 3 0 3 2 0 1 1 1 0 1
Neighs:    47707.4 ave 51834 max 42956 min
Histogram: 2 1 0 0 0 2 3 2 1 1

Total # of neighbors = 572489
Ave neighs/atom = 364.179
Ave special neighs/atom = 1.9084
Neighbor list builds = 397350
Dangerous builds = 0
shell bash copy_files.sh dt_${tstep} 40.00Mstep
shell bash copy_files.sh dt_2 40.00Mstep

run ${Nrun4}
run 5000000
PPPM initialization ...
  extracting TIP4P info from pair style
  using 12-bit tables for long-range coulomb (../kspace.cpp:321)
  G vector (1/distance) = 0.310397
  grid = 24 24 24
  stencil order = 5
  estimated absolute RMS force accuracy = 0.00365983
  estimated relative force accuracy = 1.10215e-05
  using double precision FFTs
  3d grid and FFT values/proc = 5415 1152
Per MPI rank memory allocation (min/avg/max) = 14.31 | 14.32 | 14.32 Mbytes
Step Density Temp Press TotEng 
40000000    1.1525234    298.04613   -728.56559   -8383.8719 
40100000    1.1525234    288.15003    -103.9969   -8416.7716 
40200000    1.1525234    297.27757   -214.67502   -8422.5385 
40300000    1.1525234    291.83103    -391.3415   -8436.7287 
40400000    1.1525234    295.77509    587.92182   -8397.9862 
40500000    1.1525234    292.23059   -384.22623   -8453.7318 
40600000    1.1525234    300.10927    45.910342   -8379.1136 
40700000    1.1525234    301.86239    -1381.423   -8438.8095 
40800000    1.1525234    295.81505    852.36224   -8405.8667 
40900000    1.1525234    283.44101   -60.623169   -8439.4778 
41000000    1.1525234    295.17867   -646.10321   -8387.4332 
41100000    1.1525234    292.19701   -147.56726   -8414.5799 
41200000    1.1525234    292.36607     84.08473   -8426.0854 
41300000    1.1525234    296.53853   -507.67655   -8456.8482 
41400000    1.1525234    291.09106     63.13738   -8464.0348 
41500000    1.1525234    293.73685    323.35343   -8390.4247 
41600000    1.1525234    290.08602   -199.83793   -8445.3556 
41700000    1.1525234    297.72281   -398.47298   -8414.8843 
41800000    1.1525234    290.24893   -652.87739   -8470.7348 
41900000    1.1525234    293.06933   -13.635332   -8407.8515 
42000000    1.1525234    302.14214   -332.85945   -8343.3141 
42100000    1.1525234     304.5925   -285.76658   -8386.5251 
42200000    1.1525234    312.60204    462.19976   -8359.5707 
42300000    1.1525234     307.0246   -259.53463   -8368.8643 
42400000    1.1525234    278.21504    58.971561   -8438.7089 
42500000    1.1525234    296.88181    137.71516   -8385.9013 
42600000    1.1525234    313.08556   -250.11755   -8351.3498 
42700000    1.1525234    292.07027    35.485126    -8399.093 
42800000    1.1525234    300.39449   -299.58657   -8349.7828 
42900000    1.1525234    309.66888    994.83441   -8373.7079 
43000000    1.1525234    295.49014   -84.663659    -8458.855 
43100000    1.1525234    298.61109    792.94473   -8396.1375 
43200000    1.1525234    278.63084     -157.341   -8422.9865 
43300000    1.1525234      301.967   -351.10368   -8415.6366 
43400000    1.1525234    305.07983   -425.30811   -8376.1845 
43500000    1.1525234    298.51429    157.39541   -8433.4678 
43600000    1.1525234    297.84322   -235.13187   -8387.4734 
43700000    1.1525234    299.51922    560.37186   -8354.1019 
43800000    1.1525234    293.58479    192.72118   -8355.1063 
43900000    1.1525234    289.50002    224.32766   -8383.4316 
44000000    1.1525234    302.60289   -482.51918   -8334.3283 
44100000    1.1525234    312.53682     339.7393   -8288.8247 
44200000    1.1525234    299.60459     119.6865   -8365.4383 
44300000    1.1525234    302.68974    250.57206   -8328.1046 
44400000    1.1525234    304.15882     -270.275   -8378.8942 
44500000    1.1525234    293.07061   -688.17157   -8409.6371 
44600000    1.1525234    289.88842    781.99248   -8461.3252 
44700000    1.1525234    282.84377   -965.80756   -8429.2577 
44800000    1.1525234    301.98995   -420.31392   -8360.0971 
44900000    1.1525234    293.04278    105.32933   -8443.8099 
45000000    1.1525234    298.12198    861.72312   -8416.3652 
Loop time of 25639.6 on 12 procs for 5000000 steps with 1572 atoms

Performance: 33.698 ns/day, 0.712 hours/ns, 195.011 timesteps/s
93.2% CPU use with 12 MPI tasks x no OpenMP threads

MPI task timing breakdown:
Section |  min time  |  avg time  |  max time  |%varavg| %total
---------------------------------------------------------------
Pair    | 14176      | 15253      | 16203      | 606.9 | 59.49
Bond    | 65.614     | 67.077     | 68.128     |   7.3 |  0.26
Kspace  | 6239.6     | 7190.7     | 8274.3     | 886.2 | 28.05
Neigh   | 810.29     | 811.17     | 811.78     |   1.6 |  3.16
Comm    | 771.92     | 777.95     | 783.74     |  12.8 |  3.03
Output  | 1.6991     | 1.7011     | 1.7093     |   0.2 |  0.01
Modify  | 1433.8     | 1439.5     | 1443       |   7.2 |  5.61
Other   |            | 98.1       |            |       |  0.38

Nlocal:    131 ave 141 max 123 min
Histogram: 2 1 2 1 1 2 0 0 2 1
Nghost:    4191.92 ave 4274 max 4124 min
Histogram: 1 2 1 1 2 3 0 0 0 2
Neighs:    47702.1 ave 51842 max 43529 min
Histogram: 1 0 1 2 3 1 2 0 1 1

Total # of neighbors = 572425
Ave neighs/atom = 364.138
Ave special neighs/atom = 1.9084
Neighbor list builds = 397073
Dangerous builds = 0
shell bash copy_files.sh dt_${tstep} 45.00Mstep
shell bash copy_files.sh dt_2 45.00Mstep

run ${Nrun4}
run 5000000
PPPM initialization ...
  extracting TIP4P info from pair style
  using 12-bit tables for long-range coulomb (../kspace.cpp:321)
  G vector (1/distance) = 0.310397
  grid = 24 24 24
  stencil order = 5
  estimated absolute RMS force accuracy = 0.00365983
  estimated relative force accuracy = 1.10215e-05
  using double precision FFTs
  3d grid and FFT values/proc = 5415 1152
Per MPI rank memory allocation (min/avg/max) = 14.31 | 14.32 | 14.32 Mbytes
Step Density Temp Press TotEng 
45000000    1.1525234    298.12198     862.3367   -8416.3652 
45100000    1.1525234    313.64197   -366.23107   -8328.5711 
45200000    1.1525234    300.83385   -190.26347   -8419.4328 
45300000    1.1525234    290.68286    271.44535   -8387.5555 
45400000    1.1525234    294.49134   -460.28186   -8420.2399 
45500000    1.1525234     303.7445   -91.110094   -8331.9031 
45600000    1.1525234     311.6297    678.09538   -8322.4607 
45700000    1.1525234    293.31417    77.090499   -8423.4708 
45800000    1.1525234    297.68004     327.9949   -8415.3317 
45900000    1.1525234    297.05394   -668.89209   -8366.8259 
46000000    1.1525234    303.88107    309.51102   -8337.3929 
46100000    1.1525234    302.44477    -490.6478    -8451.401 
46200000    1.1525234    296.95037   -27.172969   -8404.8528 
46300000    1.1525234    296.84148    159.99608   -8356.4576 
46400000    1.1525234    303.30645   -121.42962   -8380.5017 
46500000    1.1525234    314.57354    305.34137    -8308.816 
46600000    1.1525234     301.1639   -187.64522   -8386.8852 
46700000    1.1525234    283.82913    -1152.066   -8482.6248 
46800000    1.1525234    294.73949    901.72657   -8414.0293 
46900000    1.1525234     312.2257    657.19072   -8374.1588 
47000000    1.1525234    303.74755    512.98106   -8357.6434 
47100000    1.1525234    290.53562    447.94768   -8510.9863 
47200000    1.1525234    307.23149   -389.15778     -8365.72 
47300000    1.1525234    289.16854   -584.21801   -8384.1587 
47400000    1.1525234    296.01831   -277.67438   -8385.3885 
47500000    1.1525234    302.68114    901.16065   -8370.6027 
47600000    1.1525234    300.43105    873.26776    -8397.155 
47700000    1.1525234    298.81667   -562.06827   -8330.6684 
47800000    1.1525234    297.58062   -128.06335   -8387.8913 
47900000    1.1525234    317.08262   -656.55445   -8354.9736 
48000000    1.1525234    291.13714    89.585783   -8388.7987 
48100000    1.1525234    294.66048   -676.12914   -8468.3585 
48200000    1.1525234    285.45405    154.88142    -8391.387 
48300000    1.1525234    305.05703    307.57615   -8347.4261 
48400000    1.1525234    301.22026   -714.99648   -8349.3711 
48500000    1.1525234    297.42047   -231.04383   -8362.4483 
48600000    1.1525234    284.55754    962.69869   -8418.6038 
48700000    1.1525234    294.01904   -211.72651   -8453.5306 
48800000    1.1525234    301.71985    815.07228   -8282.8956 
48900000    1.1525234    290.21846    83.192326   -8404.9677 
49000000    1.1525234    294.05893    1536.9018   -8396.1063 
49100000    1.1525234     296.6242   -404.55115   -8405.8803 
49200000    1.1525234    282.40194   -764.71829   -8444.5977 
49300000    1.1525234    299.22387    1043.6937   -8423.7384 
49400000    1.1525234    302.81751    728.18617   -8327.4343 
49500000    1.1525234    301.87304    587.21264   -8354.1893 
49600000    1.1525234    299.31667   -1153.4742   -8355.0281 
49700000    1.1525234    298.79309   -821.87175   -8437.4299 
49800000    1.1525234    290.14113    -629.0029   -8367.1727 
49900000    1.1525234    294.34226     259.0641   -8452.1364 
50000000    1.1525234    295.00453   -903.43961   -8446.8691 
Loop time of 25689.2 on 12 procs for 5000000 steps with 1572 atoms

Performance: 33.633 ns/day, 0.714 hours/ns, 194.634 timesteps/s
93.1% CPU use with 12 MPI tasks x no OpenMP threads

MPI task timing breakdown:
Section |  min time  |  avg time  |  max time  |%varavg| %total
---------------------------------------------------------------
Pair    | 14133      | 15286      | 16307      | 611.4 | 59.50
Bond    | 65.97      | 67.12      | 67.917     |   7.4 |  0.26
Kspace  | 6180.9     | 7203       | 8362.2     | 892.9 | 28.04
Neigh   | 811.17     | 812.04     | 812.67     |   1.6 |  3.16
Comm    | 772.26     | 778.3      | 784.37     |  13.5 |  3.03
Output  | 1.6964     | 1.6997     | 1.7065     |   0.2 |  0.01
Modify  | 1437.3     | 1442.6     | 1446.5     |   7.2 |  5.62
Other   |            | 98.47      |            |       |  0.38

Nlocal:    131 ave 147 max 119 min
Histogram: 3 0 2 1 1 1 0 3 0 1
Nghost:    4188.42 ave 4244 max 4160 min
Histogram: 2 2 3 1 1 1 1 0 0 1
Neighs:    47684.1 ave 53831 max 39273 min
Histogram: 1 0 0 2 1 3 1 1 1 2

Total # of neighbors = 572209
Ave neighs/atom = 364.001
Ave special neighs/atom = 1.9084
Neighbor list builds = 397142
Dangerous builds = 0
shell bash copy_files.sh dt_${tstep} 50.00Mstep
shell bash copy_files.sh dt_2 50.00Mstep
quit
