LAMMPS (16 Mar 2018)
####################################################
# Preprocessing Li2SO4 in water
#################### SETTING UP ####################
units real
dimension 3
newton on
boundary p p p
atom_style full

#################### VARIABLES ####################
variable Temp equal 298.15    # Temperature in K
variable Pres equal 1    # Pressure in atm.

variable RandomSeed equal 77 # The random seed for velocity
variable tstep equal 2 # timestep in fs

#################### NPT ####################
variable Ninptpre equal 10000 # Pre-initialize the NPT ensemble (very small timesteps)
variable Ninpt equal 5000000  # Initialize the NPT ensemble
variable Npnpt equal 5000000  # Production in the NPT ensemble (volume)

#################### NVT ####################
variable Ninvtpre equal 10000  # Pre-initialize the NVT ensemble (very small timesteps)
variable Ninvt equal 2500000   # Initialize the NVT ensemble 2.5Mstep
variable Nrun1 equal 250000  # production in the NVT ensemble (Transport properties)
variable Nrun2 equal 1000000  # production in the NVT ensemble (Transport properties)
variable Nrun3 equal 2500000  # production in the NVT ensemble (Transport properties)
variable Nrun4 equal 5000000  # production in the NVT ensemble (Transport properties)

variable Nf equal 100000      # Nfreq (fix ave/time and thermo)
variable Ne equal  1          # Nevery (fix ave/time)
variable Nr equal ${Nf}/${Ne} # Nrepeat (fix ave/time)
variable Nr equal 100000/${Ne} 
variable Nr equal 100000/1 
variable Nd equal ${Nf} 	  # Frequency of outputting positions of atoms in the NVT ensemble
variable Nd equal 100000 	  
variable NBR equal ${Npnpt}/100 # Block averaging for density (NPT)
variable NBR equal 5000000/100 

variable nb equal 10          # Number of blocks (fix ordern)
variable nbe equal 20         # Number of block elements (fix ordern)
variable Nvisc equal 5        # Nevery for viscosity (fix ordern: sample data at (Nvisc*2))
variable Ncond equal 5        # Nevery for Tconductivity (fix ordern: sample data at (Ncond*2))
variable Ndiff equal 1000     # Nevery for diffusivity (fix ordern: sample data at (Ndiff))
variable Nwrit equal 100000   # Nwrite for transport properties (fix ordern: write every (Nwrit))

variable Nrdfe equal 1000     # Nevery for RDF (fix ave/time)
variable Nrdfw equal 1000     # Nwrite for RDF (compute rdf/ext: write every (Nrdfw*Nrdfe))
variable binnum equal 2000    # Number of bins for RDF

#################### ATOM DEFINITION and FORCEFIELD ####################
read_data ./data.lmp                     # read the positions
  orthogonal box = (0 0 0) to (25.8482 25.8482 25.8482)
  2 by 2 by 3 MPI processor grid
  reading atoms ...
  1572 atoms
  scanning bonds ...
  2 = max bonds/atom
  scanning angles ...
  1 = max angles/atom
  reading bonds ...
  1000 bonds
  reading angles ...
  500 angles
  2 = max # of 1-2 neighbors
  1 = max # of 1-3 neighbors
  1 = max # of 1-4 neighbors
  2 = max # of special neighbors
include ./forcefield.data                # read the force field
#--------INTERMOLECULAR POTENTIAL -------------------#
# --------Developed for MadridT KCl + TIP4P/2005-----#

mass 1 15.9994	# Ow
mass 2 1.008	# Hw
mass 3 39.0983	# K
mass 4 35.453	# Cl


pair_style lj/cut/tip4p/long 1 2 1 1 0.1546 10.0
kspace_style pppm/tip4p 1.0e-5
pair_modify mix arithmetic tail yes # ATC and Lorentz-Berthelot combining rules

#-----------------Combinations----------------------------
# atomtype atomtype epsilon sigma

pair_coeff 1 1 0.185200 3.15890    # Ow-Ow
pair_coeff 1 2 0.000000 0.00000    # Ow-Hw
pair_coeff 1 3 0.334711 2.89540    # Ow-K
pair_coeff 1 4 0.014814 4.07631    # Ow-Cl

pair_coeff 2 2 0.000000 0.00000    # Hw-Hw
pair_coeff 2 3 0.000000 0.00000    # Hw-K
pair_coeff 2 4 0.000000 0.00000    # Hw-Cl

pair_coeff 3 3 0.474603 3.41700    # K-K
pair_coeff 3 4 0.334608 3.41700    # K-Cl

pair_coeff 4 4 0.018385 4.69906    # Cl-Cl

bond_style  harmonic
bond_coeff 1 2000 0.9572           # Ow-Hw

angle_style harmonic
angle_coeff 1 200 104.52           # H-Ow-H

#dihedral_style none
#improper_style none

set type 1 charge -1.1128          # O
  500 settings made for charge
set type 2 charge +0.5564          # OH
  1000 settings made for charge
set type 3 charge +0.7500          # K
  36 settings made for charge
set type 4 charge -0.7500          # Cl
  36 settings made for charge

#################### INITIALIZATION ####################
group wat type 1		# O water
500 atoms in group wat
group K type 3			# Potasium ion
36 atoms in group K
group Cl type 4			# Chlorine ion
36 atoms in group Cl

# neigbor lists
neighbor 2.0 bin
neigh_modify every 1 delay 0 check yes

# velocity-Verlet integrator
run_style verlet

# initializing velocities
velocity all create ${Temp} ${RandomSeed}
velocity all create 298.15 ${RandomSeed}
velocity all create 298.15 77

# rate of writing thermal properties to the log file
thermo_style custom step density temp press etotal
thermo_modify flush yes
thermo ${Nf}
thermo 100000

#################### 2) Initialize the NPT ensemble ####################
######### Go to the correct temperature now ant initiate that ##########
fix constrain all shake 1.0e-6 1000 0 b 1 a 1
  0 = # of size 2 clusters
  0 = # of size 3 clusters
  0 = # of size 4 clusters
  500 = # of frozen angles
fix integrate all npt temp ${Temp} ${Temp} 10.0 iso ${Pres} ${Pres} 100.0
fix integrate all npt temp 298.15 ${Temp} 10.0 iso ${Pres} ${Pres} 100.0
fix integrate all npt temp 298.15 298.15 10.0 iso ${Pres} ${Pres} 100.0
fix integrate all npt temp 298.15 298.15 10.0 iso 1 ${Pres} 100.0
fix integrate all npt temp 298.15 298.15 10.0 iso 1 1 100.0


# Initializing the whole system with very small timesteps in the NPT ensemble
timestep 0.001
run ${Ninptpre}
run 10000
PPPM initialization ...
  extracting TIP4P info from pair style
  using 12-bit tables for long-range coulomb (../kspace.cpp:321)
  G vector (1/distance) = 0.309797
  grid = 24 24 24
  stencil order = 5
  estimated absolute RMS force accuracy = 0.00375155
  estimated relative force accuracy = 1.12977e-05
  using double precision FFTs
  3d grid and FFT values/proc = 5415 1152
Neighbor list info ...
  update every 1 steps, delay 0 steps, check yes
  max neighbors/atom: 2000, page size: 100000
  master list distance cutoff = 12.3092
  ghost atom cutoff = 12.3092
  binsize = 6.1546, bins = 5 5 5
  1 neighbor lists, perpetual/occasional/extra = 1 0 0
  (1) pair lj/cut/tip4p/long, perpetual
      attributes: half, newton on
      pair build: half/bin/newton
      stencil: half/bin/3d/newton
      bin: standard
Per MPI rank memory allocation (min/avg/max) = 8.286 | 8.289 | 8.293 Mbytes
Step Density Temp Press TotEng 
       0    1.1241608    437.34234    170151.77    2311.9202 
   10000    1.0219877    1144.3962    14560.686    349.62557 
Loop time of 39.6178 on 12 procs for 10000 steps with 1572 atoms

Performance: 0.022 ns/day, 1100.495 hours/ns, 252.412 timesteps/s
94.1% CPU use with 12 MPI tasks x no OpenMP threads

MPI task timing breakdown:
Section |  min time  |  avg time  |  max time  |%varavg| %total
---------------------------------------------------------------
Pair    | 21.85      | 23.423     | 26.22      |  28.6 | 59.12
Bond    | 0.0054326  | 0.0063959  | 0.0078275  |   0.8 |  0.02
Kspace  | 7.1645     | 9.9591     | 11.512     |  43.9 | 25.14
Neigh   | 0.0017767  | 0.0017875  | 0.001794   |   0.0 |  0.00
Comm    | 1.2137     | 1.2362     | 1.264      |   1.2 |  3.12
Output  | 5.9411e-05 | 7.927e-05  | 0.00028734 |   0.0 |  0.00
Modify  | 4.4427     | 4.7295     | 4.8128     |   4.3 | 11.94
Other   |            | 0.2621     |            |       |  0.66

Nlocal:    131 ave 139 max 124 min
Histogram: 1 1 3 1 2 0 0 1 1 2
Nghost:    4111.75 ave 4172 max 4023 min
Histogram: 2 1 1 0 0 0 0 4 2 2
Neighs:    43958.3 ave 47800 max 40849 min
Histogram: 3 0 1 3 0 2 0 0 1 2

Total # of neighbors = 527500
Ave neighs/atom = 335.56
Ave special neighs/atom = 1.9084
Neighbor list builds = 1
Dangerous builds = 0
timestep 0.01
run ${Ninptpre}
run 10000
PPPM initialization ...
  extracting TIP4P info from pair style
  using 12-bit tables for long-range coulomb (../kspace.cpp:321)
  G vector (1/distance) = 0.310448
  grid = 25 25 25
  stencil order = 5
  estimated absolute RMS force accuracy = 0.00343494
  estimated relative force accuracy = 1.03442e-05
  using double precision FFTs
  3d grid and FFT values/proc = 6400 1875
Per MPI rank memory allocation (min/avg/max) = 8.324 | 8.349 | 8.395 Mbytes
Step Density Temp Press TotEng 
   10000    1.0219877    1144.3962    1441094.7    349.63369 
   20000    1.1558319    312.02572   -1005.7342   -7222.0078 
Loop time of 41.1121 on 12 procs for 10000 steps with 1572 atoms

Performance: 0.210 ns/day, 114.200 hours/ns, 243.238 timesteps/s
91.6% CPU use with 12 MPI tasks x no OpenMP threads

MPI task timing breakdown:
Section |  min time  |  avg time  |  max time  |%varavg| %total
---------------------------------------------------------------
Pair    | 20.817     | 22.619     | 24.492     |  23.3 | 55.02
Bond    | 0.0056793  | 0.0067     | 0.0085006  |   0.9 |  0.02
Kspace  | 8.4297     | 10.319     | 12.102     |  34.6 | 25.10
Neigh   | 0.015629   | 0.015674   | 0.015759   |   0.0 |  0.04
Comm    | 1.2348     | 1.2755     | 1.296      |   1.6 |  3.10
Output  | 6.2421e-05 | 8.347e-05  | 0.00030546 |   0.0 |  0.00
Modify  | 4.6306     | 5.1451     | 6.7336     |  21.7 | 12.51
Other   |            | 1.731      |            |       |  4.21

Nlocal:    131 ave 137 max 125 min
Histogram: 1 1 3 0 2 0 0 2 1 2
Nghost:    4258.08 ave 4342 max 4170 min
Histogram: 2 0 2 0 1 3 0 2 1 1
Neighs:    47270.4 ave 50715 max 43106 min
Histogram: 1 0 3 0 2 0 1 2 1 2

Total # of neighbors = 567245
Ave neighs/atom = 360.843
Ave special neighs/atom = 1.9084
Neighbor list builds = 9
Dangerous builds = 0
timestep 0.1
run ${Ninptpre}
run 10000
PPPM initialization ...
  extracting TIP4P info from pair style
  using 12-bit tables for long-range coulomb (../kspace.cpp:321)
  G vector (1/distance) = 0.310466
  grid = 24 24 24
  stencil order = 5
  estimated absolute RMS force accuracy = 0.00364942
  estimated relative force accuracy = 1.09901e-05
  using double precision FFTs
  3d grid and FFT values/proc = 5415 1152
Per MPI rank memory allocation (min/avg/max) = 8.286 | 8.29 | 8.293 Mbytes
Step Density Temp Press TotEng 
   20000    1.1558319    312.02572   -22404.869   -7222.0088 
   30000    1.1562132    289.10889   -150.70964   -8304.5771 
Loop time of 42.9154 on 12 procs for 10000 steps with 1572 atoms

Performance: 2.013 ns/day, 11.921 hours/ns, 233.017 timesteps/s
94.1% CPU use with 12 MPI tasks x no OpenMP threads

MPI task timing breakdown:
Section |  min time  |  avg time  |  max time  |%varavg| %total
---------------------------------------------------------------
Pair    | 24.407     | 26.225     | 28.369     |  26.5 | 61.11
Bond    | 0.0055885  | 0.0065348  | 0.0078312  |   0.8 |  0.02
Kspace  | 8.048      | 10.207     | 12.003     |  42.6 | 23.79
Neigh   | 0.087676   | 0.08786    | 0.088045   |   0.1 |  0.20
Comm    | 1.3107     | 1.3321     | 1.3662     |   1.4 |  3.10
Output  | 6.0812e-05 | 8.2552e-05 | 0.00030524 |   0.0 |  0.00
Modify  | 4.5026     | 4.7901     | 4.8725     |   4.2 | 11.16
Other   |            | 0.2662     |            |       |  0.62

Nlocal:    131 ave 135 max 124 min
Histogram: 1 1 1 0 0 1 1 2 1 4
Nghost:    4212 ave 4263 max 4150 min
Histogram: 2 0 0 1 1 2 2 2 1 1
Neighs:    47743.2 ave 52802 max 42806 min
Histogram: 1 1 1 3 1 1 0 1 2 1

Total # of neighbors = 572918
Ave neighs/atom = 364.452
Ave special neighs/atom = 1.9084
Neighbor list builds = 45
Dangerous builds = 0
timestep 0.2
run ${Ninptpre}
run 10000
PPPM initialization ...
  extracting TIP4P info from pair style
  using 12-bit tables for long-range coulomb (../kspace.cpp:321)
  G vector (1/distance) = 0.310474
  grid = 24 24 24
  stencil order = 5
  estimated absolute RMS force accuracy = 0.00364823
  estimated relative force accuracy = 1.09865e-05
  using double precision FFTs
  3d grid and FFT values/proc = 5415 1152
Per MPI rank memory allocation (min/avg/max) = 8.287 | 8.311 | 8.536 Mbytes
Step Density Temp Press TotEng 
   30000    1.1562132    289.10889   -3745.2769   -8304.5771 
   40000    1.1483204    298.16876   -365.31758    -8384.163 
Loop time of 43.9863 on 12 procs for 10000 steps with 1572 atoms

Performance: 3.928 ns/day, 6.109 hours/ns, 227.343 timesteps/s
92.9% CPU use with 12 MPI tasks x no OpenMP threads

MPI task timing breakdown:
Section |  min time  |  avg time  |  max time  |%varavg| %total
---------------------------------------------------------------
Pair    | 23.807     | 26.188     | 29.835     |  39.0 | 59.54
Bond    | 0.0056676  | 0.0066349  | 0.0082442  |   0.8 |  0.02
Kspace  | 7.6051     | 11.241     | 13.635     |  59.5 | 25.56
Neigh   | 0.17343    | 0.17369    | 0.17403    |   0.1 |  0.39
Comm    | 1.3044     | 1.3236     | 1.3502     |   1.0 |  3.01
Output  | 6.0171e-05 | 7.9325e-05 | 0.00028425 |   0.0 |  0.00
Modify  | 4.5027     | 4.7887     | 4.8765     |   4.2 | 10.89
Other   |            | 0.2646     |            |       |  0.60

Nlocal:    131 ave 143 max 120 min
Histogram: 2 1 0 2 0 1 4 1 0 1
Nghost:    4193.67 ave 4247 max 4155 min
Histogram: 2 3 0 1 0 2 2 1 0 1
Neighs:    47380.1 ave 52286 max 42155 min
Histogram: 2 1 1 1 0 1 3 0 1 2

Total # of neighbors = 568561
Ave neighs/atom = 361.68
Ave special neighs/atom = 1.9084
Neighbor list builds = 88
Dangerous builds = 0
timestep 0.5
run ${Ninptpre}
run 10000
PPPM initialization ...
  extracting TIP4P info from pair style
  using 12-bit tables for long-range coulomb (../kspace.cpp:321)
  G vector (1/distance) = 0.310309
  grid = 24 24 24
  stencil order = 5
  estimated absolute RMS force accuracy = 0.00367313
  estimated relative force accuracy = 1.10615e-05
  using double precision FFTs
  3d grid and FFT values/proc = 5415 1152
Per MPI rank memory allocation (min/avg/max) = 8.287 | 8.384 | 8.665 Mbytes
Step Density Temp Press TotEng 
   40000    1.1483204    298.16876   -2718.2723   -8384.1629 
   50000    1.1678552    295.74963   -401.25998   -8435.0346 
Loop time of 44.474 on 12 procs for 10000 steps with 1572 atoms

Performance: 9.714 ns/day, 2.471 hours/ns, 224.851 timesteps/s
93.0% CPU use with 12 MPI tasks x no OpenMP threads

MPI task timing breakdown:
Section |  min time  |  avg time  |  max time  |%varavg| %total
---------------------------------------------------------------
Pair    | 23.688     | 26.33      | 30.092     |  34.2 | 59.20
Bond    | 0.005689   | 0.0064938  | 0.0071167  |   0.5 |  0.01
Kspace  | 7.4983     | 11.247     | 13.894     |  52.4 | 25.29
Neigh   | 0.44097    | 0.44179    | 0.44233    |   0.1 |  0.99
Comm    | 1.3559     | 1.3768     | 1.3945     |   1.0 |  3.10
Output  | 6.0186e-05 | 8.2806e-05 | 0.00031701 |   0.0 |  0.00
Modify  | 4.5224     | 4.8054     | 4.8907     |   4.2 | 10.81
Other   |            | 0.2658     |            |       |  0.60

Nlocal:    131 ave 138 max 120 min
Histogram: 1 0 0 1 2 1 3 0 3 1
Nghost:    4231.92 ave 4250 max 4212 min
Histogram: 2 0 1 1 2 0 2 2 1 1
Neighs:    48415.5 ave 53564 max 43683 min
Histogram: 1 3 0 1 1 2 1 1 0 2

Total # of neighbors = 580986
Ave neighs/atom = 369.584
Ave special neighs/atom = 1.9084
Neighbor list builds = 221
Dangerous builds = 0
reset_timestep 0

# continuing the initialization with the final value of timestep
unfix integrate
fix integrate all npt temp ${Temp} ${Temp} 100.0 iso ${Pres} ${Pres} 1000.0
fix integrate all npt temp 298.15 ${Temp} 100.0 iso ${Pres} ${Pres} 1000.0
fix integrate all npt temp 298.15 298.15 100.0 iso ${Pres} ${Pres} 1000.0
fix integrate all npt temp 298.15 298.15 100.0 iso 1 ${Pres} 1000.0
fix integrate all npt temp 298.15 298.15 100.0 iso 1 1 1000.0

timestep ${tstep}
timestep 2


run ${Ninpt}
run 5000000
PPPM initialization ...
  extracting TIP4P info from pair style
  using 12-bit tables for long-range coulomb (../kspace.cpp:321)
  G vector (1/distance) = 0.310714
  grid = 24 24 24
  stencil order = 5
  estimated absolute RMS force accuracy = 0.00361212
  estimated relative force accuracy = 1.08778e-05
  using double precision FFTs
  3d grid and FFT values/proc = 5415 1152
Per MPI rank memory allocation (min/avg/max) = 8.288 | 8.446 | 8.665 Mbytes
Step Density Temp Press TotEng 
       0    1.1678552    295.74963    -190.0337   -8435.0341 
  100000    1.1333782    278.10508   -1102.2868   -8435.1972 
  200000    1.1592473    308.23629    101.36755   -8275.2158 
  300000    1.1443547    305.04329   -461.46543   -8375.9782 
  400000    1.1541645    294.49426    692.76054   -8412.1763 
  500000    1.1582733    306.63677    74.811615   -8356.5557 
  600000    1.1502949    296.84203    753.15055   -8390.9033 
  700000    1.1546761    311.08549   -252.18879   -8365.8911 
  800000    1.1500261    300.53998   -481.37395   -8379.8463 
  900000    1.1534907    294.10448    360.79667   -8347.6926 
 1000000    1.1640614     296.0261    -4.859383   -8451.7614 
 1100000    1.1581779    301.90232   -134.91864   -8366.2416 
 1200000    1.1671295    303.04918     688.5801   -8364.9037 
 1300000    1.1566939    302.04519    738.56587   -8449.2786 
 1400000    1.1663348    305.44386    548.85431   -8363.5412 
 1500000     1.161411    307.70212   -380.34474   -8410.2752 
 1600000     1.152028    305.42279    329.73964   -8352.5545 
 1700000    1.1480041    301.48843   -203.50887   -8402.5562 
 1800000     1.164189    301.32881    947.77852   -8394.2821 
 1900000    1.1520943    302.83833     297.5726    -8379.598 
 2000000    1.1438273    295.04159     435.4621    -8450.462 
 2100000    1.1578778    297.02165   -641.74172   -8317.8924 
 2200000    1.1554134    299.63704    964.17233   -8390.8259 
 2300000     1.153283    295.40499   -336.41769   -8504.2041 
 2400000    1.1517571    296.93811   -633.78842   -8420.6958 
 2500000    1.1382402    299.56848   -716.07995   -8365.3735 
 2600000    1.1411577    296.96018   -890.18698   -8400.1933 
 2700000    1.1506629    289.57295     305.2226    -8471.544 
 2800000     1.162875    320.38554    1029.2442   -8375.1136 
 2900000    1.1546614    293.89164    307.42918   -8387.5945 
 3000000    1.1566176    304.96727    410.84432   -8380.4906 
 3100000    1.1685739    287.16503    347.38961   -8382.5375 
 3200000    1.1441684    306.25294   -610.19725   -8296.7129 
 3300000    1.1500822     286.7177   -320.12813   -8455.7958 
 3400000    1.1423229    306.18571    712.35755   -8335.9076 
 3500000     1.163698    296.31818   -247.81228   -8389.8337 
 3600000      1.15815    292.98367    1116.9609   -8407.7517 
 3700000    1.1574514    292.47018    182.61305   -8388.7476 
 3800000    1.1668833    299.73322    -521.2598    -8387.109 
 3900000    1.1488692    281.68794    209.46501   -8407.2909 
 4000000    1.1259049    298.71528    -567.9758   -8416.5146 
 4100000    1.1530957    306.40655   -974.18076   -8397.5721 
 4200000    1.1415378    289.88162   -674.02978   -8395.3679 
 4300000    1.1492928    299.97718    568.28761   -8397.3925 
 4400000    1.1344743    298.30832   -773.39756   -8343.9746 
 4500000    1.1488128    297.73116   -527.29032   -8378.2875 
 4600000    1.1467623    278.57942   -55.438849   -8507.8407 
 4700000    1.1480985    292.72323   -607.77779   -8407.5172 
 4800000    1.1587093    299.72484   -409.87258   -8394.2766 
 4900000    1.1584515    296.40041    95.121528    -8406.883 
 5000000    1.1559152    304.53362    243.61148   -8415.9814 
Loop time of 22974.4 on 12 procs for 5000000 steps with 1572 atoms

Performance: 37.607 ns/day, 0.638 hours/ns, 217.634 timesteps/s
93.4% CPU use with 12 MPI tasks x no OpenMP threads

MPI task timing breakdown:
Section |  min time  |  avg time  |  max time  |%varavg| %total
---------------------------------------------------------------
Pair    | 12291      | 13375      | 14550      | 574.3 | 58.22
Bond    | 2.8738     | 3.3521     | 3.7097     |  14.6 |  0.01
Kspace  | 4301.9     | 5470       | 6558.2     | 898.7 | 23.81
Neigh   | 816.65     | 817.65     | 818.51     |   2.1 |  3.56
Comm    | 739.81     | 747.81     | 759.5      |  20.3 |  3.25
Output  | 0.003118   | 0.0041692  | 0.015441   |   5.3 |  0.00
Modify  | 2283.6     | 2425.3     | 2467.1     |  92.7 | 10.56
Other   |            | 134.8      |            |       |  0.59

Nlocal:    131 ave 144 max 123 min
Histogram: 1 3 3 0 1 0 2 1 0 1
Nghost:    4202 ave 4273 max 4143 min
Histogram: 2 1 2 1 0 1 1 2 1 1
Neighs:    47835.2 ave 53366 max 42850 min
Histogram: 2 2 1 1 0 1 2 0 0 3

Total # of neighbors = 574022
Ave neighs/atom = 365.154
Ave special neighs/atom = 1.9084
Neighbor list builds = 401407
Dangerous builds = 0
reset_timestep 0


#################### 3) Obtaining average volume in NPT ######################
# Creating restart files
restart ${Nf} 1.restart 2.restart
restart 100000 1.restart 2.restart

# Getting the average volume of the system
variable Volume equal vol
fix VoluAve all ave/time 1 ${Npnpt} ${Npnpt} v_Volume file volume.dat
fix VoluAve all ave/time 1 5000000 ${Npnpt} v_Volume file volume.dat
fix VoluAve all ave/time 1 5000000 5000000 v_Volume file volume.dat

variable Dens equal density
fix DensAve all ave/time 1 ${NBR} ${NBR} v_Dens file density.dat
fix DensAve all ave/time 1 50000 ${NBR} v_Dens file density.dat
fix DensAve all ave/time 1 50000 50000 v_Dens file density.dat

compute T1 all temp
fix TempAve1 all ave/time 1 ${NBR} ${NBR} c_T1 file temperatureNPT.dat
fix TempAve1 all ave/time 1 50000 ${NBR} c_T1 file temperatureNPT.dat
fix TempAve1 all ave/time 1 50000 50000 c_T1 file temperatureNPT.dat

compute P1 all pressure T1
fix PressAve1 all ave/time 1 ${NBR} ${NBR} c_P1 file pressureNPT.dat
fix PressAve1 all ave/time 1 50000 ${NBR} c_P1 file pressureNPT.dat
fix PressAve1 all ave/time 1 50000 50000 c_P1 file pressureNPT.dat

run ${Npnpt}
run 5000000
PPPM initialization ...
  extracting TIP4P info from pair style
  using 12-bit tables for long-range coulomb (../kspace.cpp:321)
  G vector (1/distance) = 0.310467
  grid = 24 24 24
  stencil order = 5
  estimated absolute RMS force accuracy = 0.00364916
  estimated relative force accuracy = 1.09893e-05
  using double precision FFTs
  3d grid and FFT values/proc = 5415 1152
Per MPI rank memory allocation (min/avg/max) = 8.658 | 8.663 | 8.666 Mbytes
Step Density Temp Press TotEng 
       0    1.1559152    304.53362    246.64906    -8415.981 
  100000    1.1536042    289.09005    830.53452    -8518.776 
  200000    1.1490684    277.70036    -498.6374   -8523.5694 
  300000    1.1598769    313.19064   -40.938954   -8387.3084 
  400000    1.1492988    299.50569    333.16783   -8371.2825 
  500000    1.1481089    306.35199   -720.88911   -8325.3168 
  600000    1.1407543    284.36487   -520.64028   -8407.6749 
  700000    1.1376965    294.32526   -2.2328587   -8408.0283 
  800000    1.1304474    304.35281   -454.16521   -8373.7725 
  900000    1.1354704    296.19933   -57.816397   -8384.8689 
 1000000    1.1534569    294.16654   -764.59081   -8441.5379 
 1100000    1.1621007    288.94444   -348.48974   -8425.5468 
 1200000    1.1565362    299.53707    628.91175   -8411.7629 
 1300000    1.1506947    290.82614    632.32087   -8414.0136 
 1400000    1.1446362    307.81183    715.65844   -8345.6328 
 1500000    1.1430702    298.17014    565.01294   -8373.6816 
 1600000    1.1687595    298.22937    505.88822   -8421.5762 
 1700000    1.1559911    301.10515    177.85537   -8311.4798 
 1800000    1.1546148    299.36968    1.2622282     -8403.21 
 1900000    1.1584459    298.08526   -274.24872   -8347.6404 
 2000000    1.1501017    282.30213   -393.21273   -8393.9079 
 2100000    1.1772687    296.22175    587.45072    -8376.856 
 2200000    1.1541382    295.90193    145.63844   -8442.8645 
 2300000    1.1417366    301.55701   -327.11654   -8396.4288 
 2400000    1.1540334     279.0613   -540.18775   -8419.8697 
 2500000    1.1605547    307.58474    615.25014   -8358.4715 
 2600000    1.1625956    304.72126     304.4252   -8433.1254 
 2700000    1.1577603    298.25658   -176.85624   -8347.3723 
 2800000    1.1675472    287.41624   -16.298721   -8449.8928 
 2900000    1.1471939    286.19193    1066.2841   -8450.1475 
 3000000    1.1538414    308.94947    426.02028   -8339.1859 
 3100000     1.166045    296.74157     875.4277   -8456.9706 
 3200000    1.1424761     283.7406   -431.16435   -8409.6905 
 3300000    1.1387277    294.63445   -60.948001   -8314.4326 
 3400000    1.1569576    300.56841    124.15692   -8411.0237 
 3500000    1.1377712    305.44689   -218.17897   -8291.1088 
 3600000    1.1480075    298.02616   -556.19627   -8421.5553 
 3700000    1.1490926     283.9619   -383.74081   -8433.0193 
 3800000    1.1590959    295.69936    -248.9066   -8366.2338 
 3900000    1.1739687    299.79427     539.7134   -8311.2489 
 4000000     1.138451    294.19767     363.0575   -8391.4279 
 4100000    1.1756389    310.70642    323.32279   -8395.8194 
 4200000    1.1438686    294.95096   -794.97869   -8403.9309 
 4300000    1.1494523    285.32004    -1093.127   -8425.0794 
 4400000    1.1449868    313.53466   -621.97408   -8311.7271 
 4500000     1.137937    300.98651    17.949997   -8406.8441 
 4600000    1.1416362    291.03832   -1341.4257   -8437.5102 
 4700000    1.1513139    294.71357   -261.27356   -8355.2367 
 4800000    1.1629811    302.94624    127.11155    -8377.112 
 4900000    1.1674634    319.71082     244.7949   -8345.5057 
 5000000    1.1578027    291.92617   -25.659347   -8415.8546 
Loop time of 23102.7 on 12 procs for 5000000 steps with 1572 atoms

Performance: 37.398 ns/day, 0.642 hours/ns, 216.425 timesteps/s
93.5% CPU use with 12 MPI tasks x no OpenMP threads

MPI task timing breakdown:
Section |  min time  |  avg time  |  max time  |%varavg| %total
---------------------------------------------------------------
Pair    | 12240      | 13397      | 14545      | 582.0 | 57.99
Bond    | 2.9912     | 3.4945     | 4.0266     |  14.6 |  0.02
Kspace  | 4258.7     | 5400.9     | 6561.6     | 917.0 | 23.38
Neigh   | 816.92     | 818.05     | 818.93     |   2.2 |  3.54
Comm    | 739.26     | 748.38     | 759        |  20.2 |  3.24
Output  | 0.21328    | 0.2139     | 0.21994    |   0.4 |  0.00
Modify  | 2457.9     | 2600.5     | 2642.3     |  90.1 | 11.26
Other   |            | 134.7      |            |       |  0.58

Nlocal:    131 ave 141 max 119 min
Histogram: 1 1 0 1 4 0 1 1 0 3
Nghost:    4209.5 ave 4252 max 4156 min
Histogram: 2 0 0 0 2 2 2 1 2 1
Neighs:    47911 ave 54458 max 40237 min
Histogram: 1 0 1 0 3 3 1 2 0 1

Total # of neighbors = 574932
Ave neighs/atom = 365.733
Ave special neighs/atom = 1.9084
Neighbor list builds = 401452
Dangerous builds = 0

#################### 4) Initializing the NVT ensemble ####################
# scaling the size of the system to the average volume
variable sidesize equal (f_VoluAve^(1.0/3.0))    # get the volume
variable xlow equal xlo
variable ylow equal ylo
variable zlow equal zlo
variable xhig equal (xlo+${sidesize})
variable xhig equal (xlo+25.6315599986104)
variable yhig equal (ylo+${sidesize})
variable yhig equal (ylo+25.6315599986104)
variable zhig equal (zlo+${sidesize})
variable zhig equal (zlo+25.6315599986104)
change_box all x final ${xlow} ${xhig} y final ${ylow} ${yhig} z final ${zlow} ${zhig}
change_box all x final 0.126409384261608 ${xhig} y final ${ylow} ${yhig} z final ${zlow} ${zhig}
change_box all x final 0.126409384261608 25.757969382872 y final ${ylow} ${yhig} z final ${zlow} ${zhig}
change_box all x final 0.126409384261608 25.757969382872 y final 0.126409384261608 ${yhig} z final ${zlow} ${zhig}
change_box all x final 0.126409384261608 25.757969382872 y final 0.126409384261608 25.757969382872 z final ${zlow} ${zhig}
change_box all x final 0.126409384261608 25.757969382872 y final 0.126409384261608 25.757969382872 z final 0.126409384261608 ${zhig}
change_box all x final 0.126409384261608 25.757969382872 y final 0.126409384261608 25.757969382872 z final 0.126409384261608 25.757969382872
  orthogonal box = (0.126409 0.126409 0.126409) to (25.758 25.7218 25.7218)
  orthogonal box = (0.126409 0.126409 0.126409) to (25.758 25.758 25.7218)
  orthogonal box = (0.126409 0.126409 0.126409) to (25.758 25.758 25.758)
unfix DensAve
unfix VoluAve
unfix TempAve1
unfix PressAve1

# changing the ensemble to NVT
unfix integrate
fix integrate all nvt temp ${Temp} ${Temp} 10.0
fix integrate all nvt temp 298.15 ${Temp} 10.0
fix integrate all nvt temp 298.15 298.15 10.0

timestep 0.001
run ${Ninvtpre}
run 10000
PPPM initialization ...
  extracting TIP4P info from pair style
  using 12-bit tables for long-range coulomb (../kspace.cpp:321)
  G vector (1/distance) = 0.310405
  grid = 24 24 24
  stencil order = 5
  estimated absolute RMS force accuracy = 0.0036586
  estimated relative force accuracy = 1.10178e-05
  using double precision FFTs
  3d grid and FFT values/proc = 5415 1152
Per MPI rank memory allocation (min/avg/max) = 8.658 | 8.663 | 8.666 Mbytes
Step Density Temp Press TotEng 
 5000000    1.1529113    291.92617   -15611.067   -8430.9135 
 5010000    1.1529113    299.72816   -488.92542   -8397.2462 
Loop time of 29.8808 on 12 procs for 10000 steps with 1572 atoms

Performance: 0.029 ns/day, 830.023 hours/ns, 334.663 timesteps/s
93.6% CPU use with 12 MPI tasks x no OpenMP threads

MPI task timing breakdown:
Section |  min time  |  avg time  |  max time  |%varavg| %total
---------------------------------------------------------------
Pair    | 15.434     | 18.252     | 20.487     |  31.1 | 61.08
Bond    | 0.0032301  | 0.0041177  | 0.0053909  |   1.0 |  0.01
Kspace  | 6.9682     | 9.1643     | 11.916     |  43.2 | 30.67
Neigh   | 0          | 0          | 0          |   0.0 |  0.00
Comm    | 1.2092     | 1.2579     | 1.3316     |   2.9 |  4.21
Output  | 5.8293e-05 | 7.5825e-05 | 0.00025409 |   0.0 |  0.00
Modify  | 1.0216     | 1.0342     | 1.0451     |   0.6 |  3.46
Other   |            | 0.1683     |            |       |  0.56

Nlocal:    131 ave 141 max 120 min
Histogram: 1 1 1 2 2 0 1 1 0 3
Nghost:    4201.83 ave 4250 max 4148 min
Histogram: 1 1 0 2 0 4 1 2 0 1
Neighs:    47706.1 ave 54068 max 40282 min
Histogram: 1 0 1 0 2 4 1 2 0 1

Total # of neighbors = 572473
Ave neighs/atom = 364.169
Ave special neighs/atom = 1.9084
Neighbor list builds = 0
Dangerous builds = 0
timestep 0.01
run ${Ninvtpre}
run 10000
PPPM initialization ...
  extracting TIP4P info from pair style
  using 12-bit tables for long-range coulomb (../kspace.cpp:321)
  G vector (1/distance) = 0.310405
  grid = 24 24 24
  stencil order = 5
  estimated absolute RMS force accuracy = 0.0036586
  estimated relative force accuracy = 1.10178e-05
  using double precision FFTs
  3d grid and FFT values/proc = 5415 1152
Per MPI rank memory allocation (min/avg/max) = 8.658 | 8.663 | 8.666 Mbytes
Step Density Temp Press TotEng 
 5010000    1.1529113    299.72816    -488.9066   -8397.2462 
 5020000    1.1529113    306.80285   -580.22674   -8311.5869 
Loop time of 29.7233 on 12 procs for 10000 steps with 1572 atoms

Performance: 0.291 ns/day, 82.565 hours/ns, 336.436 timesteps/s
93.8% CPU use with 12 MPI tasks x no OpenMP threads

MPI task timing breakdown:
Section |  min time  |  avg time  |  max time  |%varavg| %total
---------------------------------------------------------------
Pair    | 15.671     | 18.216     | 20.17      |  30.9 | 61.29
Bond    | 0.0032443  | 0.0040783  | 0.005355   |   0.9 |  0.01
Kspace  | 7.0218     | 8.9373     | 11.437     |  43.4 | 30.07
Neigh   | 0.0058289  | 0.0058372  | 0.0058443  |   0.0 |  0.02
Comm    | 1.2705     | 1.3421     | 1.4205     |   4.0 |  4.52
Output  | 6.0037e-05 | 7.8498e-05 | 0.00026412 |   0.0 |  0.00
Modify  | 1.0382     | 1.0494     | 1.0614     |   0.6 |  3.53
Other   |            | 0.1684     |            |       |  0.57

Nlocal:    131 ave 138 max 116 min
Histogram: 1 0 0 0 1 3 1 0 2 4
Nghost:    4205.83 ave 4246 max 4150 min
Histogram: 1 1 0 0 1 3 0 4 1 1
Neighs:    47672.7 ave 52867 max 39409 min
Histogram: 1 1 0 0 1 1 3 2 1 2

Total # of neighbors = 572072
Ave neighs/atom = 363.913
Ave special neighs/atom = 1.9084
Neighbor list builds = 3
Dangerous builds = 0
timestep 0.1
run ${Ninvtpre}
run 10000
PPPM initialization ...
  extracting TIP4P info from pair style
  using 12-bit tables for long-range coulomb (../kspace.cpp:321)
  G vector (1/distance) = 0.310405
  grid = 24 24 24
  stencil order = 5
  estimated absolute RMS force accuracy = 0.0036586
  estimated relative force accuracy = 1.10178e-05
  using double precision FFTs
  3d grid and FFT values/proc = 5415 1152
Per MPI rank memory allocation (min/avg/max) = 8.658 | 8.663 | 8.666 Mbytes
Step Density Temp Press TotEng 
 5020000    1.1529113    306.80285   -580.45771   -8311.5869 
 5030000    1.1529113    303.65817   -931.45798    -8364.416 
Loop time of 30.6096 on 12 procs for 10000 steps with 1572 atoms

Performance: 2.823 ns/day, 8.503 hours/ns, 326.695 timesteps/s
93.0% CPU use with 12 MPI tasks x no OpenMP threads

MPI task timing breakdown:
Section |  min time  |  avg time  |  max time  |%varavg| %total
---------------------------------------------------------------
Pair    | 16.345     | 18.362     | 20.743     |  29.3 | 59.99
Bond    | 0.0031515  | 0.0041758  | 0.0054424  |   1.0 |  0.01
Kspace  | 7.2718     | 9.6032     | 11.61      |  40.1 | 31.37
Neigh   | 0.075847   | 0.075932   | 0.075991   |   0.0 |  0.25
Comm    | 1.2832     | 1.3361     | 1.4026     |   2.8 |  4.37
Output  | 6.0484e-05 | 7.9289e-05 | 0.00026453 |   0.0 |  0.00
Modify  | 1.0487     | 1.0584     | 1.0686     |   0.5 |  3.46
Other   |            | 0.1694     |            |       |  0.55

Nlocal:    131 ave 145 max 116 min
Histogram: 1 1 0 0 3 3 2 1 0 1
Nghost:    4215.17 ave 4273 max 4172 min
Histogram: 2 1 3 0 3 0 0 1 0 2
Neighs:    47695.2 ave 57119 max 44278 min
Histogram: 3 4 1 1 2 0 0 0 0 1

Total # of neighbors = 572343
Ave neighs/atom = 364.086
Ave special neighs/atom = 1.9084
Neighbor list builds = 38
Dangerous builds = 0
timestep 0.2
run ${Ninvtpre}
run 10000
PPPM initialization ...
  extracting TIP4P info from pair style
  using 12-bit tables for long-range coulomb (../kspace.cpp:321)
  G vector (1/distance) = 0.310405
  grid = 24 24 24
  stencil order = 5
  estimated absolute RMS force accuracy = 0.0036586
  estimated relative force accuracy = 1.10178e-05
  using double precision FFTs
  3d grid and FFT values/proc = 5415 1152
Per MPI rank memory allocation (min/avg/max) = 8.658 | 8.663 | 8.666 Mbytes
Step Density Temp Press TotEng 
 5030000    1.1529113    303.65817   -930.86343    -8364.416 
 5040000    1.1529113    286.71245    172.09181   -8389.7111 
Loop time of 30.4901 on 12 procs for 10000 steps with 1572 atoms

Performance: 5.667 ns/day, 4.235 hours/ns, 327.975 timesteps/s
93.4% CPU use with 12 MPI tasks x no OpenMP threads

MPI task timing breakdown:
Section |  min time  |  avg time  |  max time  |%varavg| %total
---------------------------------------------------------------
Pair    | 15.905     | 18.38      | 20.7       |  27.8 | 60.28
Bond    | 0.0033455  | 0.0041619  | 0.0051554  |   0.9 |  0.01
Kspace  | 7.0744     | 9.3604     | 11.798     |  38.6 | 30.70
Neigh   | 0.16403    | 0.16436    | 0.16457    |   0.0 |  0.54
Comm    | 1.3085     | 1.3574     | 1.401      |   2.3 |  4.45
Output  | 6.2034e-05 | 8.1426e-05 | 0.00027278 |   0.0 |  0.00
Modify  | 1.046      | 1.0559     | 1.0659     |   0.6 |  3.46
Other   |            | 0.1679     |            |       |  0.55

Nlocal:    131 ave 144 max 124 min
Histogram: 3 1 1 3 0 2 0 1 0 1
Nghost:    4239 ave 4294 max 4195 min
Histogram: 4 0 1 0 1 2 2 0 0 2
Neighs:    47689.7 ave 52819 max 41802 min
Histogram: 1 1 0 2 1 3 0 2 0 2

Total # of neighbors = 572276
Ave neighs/atom = 364.043
Ave special neighs/atom = 1.9084
Neighbor list builds = 83
Dangerous builds = 0
timestep 0.5
run ${Ninvtpre}
run 10000
PPPM initialization ...
  extracting TIP4P info from pair style
  using 12-bit tables for long-range coulomb (../kspace.cpp:321)
  G vector (1/distance) = 0.310405
  grid = 24 24 24
  stencil order = 5
  estimated absolute RMS force accuracy = 0.0036586
  estimated relative force accuracy = 1.10178e-05
  using double precision FFTs
  3d grid and FFT values/proc = 5415 1152
Per MPI rank memory allocation (min/avg/max) = 8.658 | 8.663 | 8.666 Mbytes
Step Density Temp Press TotEng 
 5040000    1.1529113    286.71245    170.17667   -8389.7111 
 5050000    1.1529113    313.15595   -546.97074   -8406.8711 
Loop time of 30.6366 on 12 procs for 10000 steps with 1572 atoms

Performance: 14.101 ns/day, 1.702 hours/ns, 326.407 timesteps/s
94.0% CPU use with 12 MPI tasks x no OpenMP threads

MPI task timing breakdown:
Section |  min time  |  avg time  |  max time  |%varavg| %total
---------------------------------------------------------------
Pair    | 17.161     | 18.571     | 20.357     |  21.3 | 60.62
Bond    | 0.0033058  | 0.0042165  | 0.0052754  |   0.9 |  0.01
Kspace  | 7.2559     | 9.0207     | 10.409     |  30.4 | 29.44
Neigh   | 0.41443    | 0.415      | 0.41544    |   0.0 |  1.35
Comm    | 1.356      | 1.3757     | 1.4206     |   1.7 |  4.49
Output  | 6.1855e-05 | 7.9842e-05 | 0.00026581 |   0.0 |  0.00
Modify  | 1.0741     | 1.0803     | 1.0873     |   0.4 |  3.53
Other   |            | 0.1691     |            |       |  0.55

Nlocal:    131 ave 149 max 123 min
Histogram: 2 1 5 1 2 0 0 0 0 1
Nghost:    4221.25 ave 4282 max 4170 min
Histogram: 3 1 1 2 1 0 0 0 1 3
Neighs:    47679.4 ave 56495 max 43380 min
Histogram: 3 3 0 1 2 2 0 0 0 1

Total # of neighbors = 572153
Ave neighs/atom = 363.965
Ave special neighs/atom = 1.9084
Neighbor list builds = 209
Dangerous builds = 0

unfix integrate
fix integrate all nvt temp ${Temp} ${Temp} 100.0
fix integrate all nvt temp 298.15 ${Temp} 100.0
fix integrate all nvt temp 298.15 298.15 100.0
# continuing the initialization with the final value of timestep
timestep ${tstep}
timestep 2

run ${Ninvt}
run 2500000
PPPM initialization ...
  extracting TIP4P info from pair style
  using 12-bit tables for long-range coulomb (../kspace.cpp:321)
  G vector (1/distance) = 0.310405
  grid = 24 24 24
  stencil order = 5
  estimated absolute RMS force accuracy = 0.0036586
  estimated relative force accuracy = 1.10178e-05
  using double precision FFTs
  3d grid and FFT values/proc = 5415 1152
Per MPI rank memory allocation (min/avg/max) = 8.658 | 8.663 | 8.666 Mbytes
Step Density Temp Press TotEng 
 5050000    1.1529113    313.15595   -576.49041   -8406.8711 
 5100000    1.1529113    294.87848    -490.7386   -8381.2318 
 5200000    1.1529113    290.74937    129.75829   -8463.2942 
 5300000    1.1529113    292.99671   -727.33159   -8406.8988 
 5400000    1.1529113    310.42661   -466.92377   -8386.2042 
 5500000    1.1529113    288.27897    1335.0227   -8431.4824 
 5600000    1.1529113    310.68203    704.60666   -8336.3209 
 5700000    1.1529113    294.06429    48.744165   -8441.4377 
 5800000    1.1529113     288.5334   -863.02506   -8386.1328 
 5900000    1.1529113    287.38174    1099.6848   -8435.6076 
 6000000    1.1529113    300.16198   -915.88912   -8384.9488 
 6100000    1.1529113    285.85311    719.16208   -8439.6161 
 6200000    1.1529113    300.11369    83.063113   -8381.5921 
 6300000    1.1529113    296.71037   -602.61062   -8392.0125 
 6400000    1.1529113    303.99104    342.13023   -8412.4897 
 6500000    1.1529113     306.1145     292.9203   -8321.4479 
 6600000    1.1529113    287.48756   -795.30854    -8421.592 
 6700000    1.1529113    294.76073    231.62552   -8323.8215 
 6800000    1.1529113    302.79691    373.84061   -8384.2649 
 6900000    1.1529113     294.2142   -769.61306   -8427.5377 
 7000000    1.1529113    310.46748    191.74348   -8358.7415 
 7100000    1.1529113    292.69984    115.09671   -8372.3031 
 7200000    1.1529113    312.58571   -916.93081   -8359.9497 
 7300000    1.1529113    296.15723    -498.6948   -8456.4662 
 7400000    1.1529113    299.40242    420.42983   -8410.5721 
 7500000    1.1529113    299.97479    709.26978   -8354.2175 
 7550000    1.1529113    307.54683   -456.91306   -8360.1457 
Loop time of 8194.46 on 12 procs for 2500000 steps with 1572 atoms

Performance: 52.719 ns/day, 0.455 hours/ns, 305.084 timesteps/s
93.5% CPU use with 12 MPI tasks x no OpenMP threads

MPI task timing breakdown:
Section |  min time  |  avg time  |  max time  |%varavg| %total
---------------------------------------------------------------
Pair    | 4397.7     | 4743.2     | 4947.1     | 281.6 | 57.88
Bond    | 0.84363    | 1.0377     | 1.216      |  12.2 |  0.01
Kspace  | 2141.2     | 2344.9     | 2687.5     | 400.7 | 28.62
Neigh   | 403.49     | 404.05     | 404.49     |   1.6 |  4.93
Comm    | 370.85     | 376.35     | 384.37     |  20.5 |  4.59
Output  | 0.10731    | 0.10765    | 0.11106    |   0.3 |  0.00
Modify  | 280.14     | 281.72     | 283.58     |   6.7 |  3.44
Other   |            | 43.09      |            |       |  0.53

Nlocal:    131 ave 140 max 121 min
Histogram: 1 1 2 1 0 1 2 1 1 2
Nghost:    4191.58 ave 4234 max 4148 min
Histogram: 1 1 2 1 2 1 1 0 0 3
Neighs:    47714.7 ave 52419 max 42759 min
Histogram: 2 0 2 2 0 1 1 0 1 3

Total # of neighbors = 572576
Ave neighs/atom = 364.234
Ave special neighs/atom = 1.9084
Neighbor list builds = 198404
Dangerous builds = 0

reset_timestep 0

#################### 2) Production in NVT ensemble #####################
# computing average total energy, pontential energy, temperature, and pressure over time
variable TotEn equal etotal
fix TEAve all ave/time ${Ne} ${Nr} ${Nf} v_TotEn file TotalE.dat
fix TEAve all ave/time 1 ${Nr} ${Nf} v_TotEn file TotalE.dat
fix TEAve all ave/time 1 100000 ${Nf} v_TotEn file TotalE.dat
fix TEAve all ave/time 1 100000 100000 v_TotEn file TotalE.dat

variable PotEn equal pe
fix PEAve all ave/time ${Ne} ${Nr} ${Nf} v_PotEn file PotenE.dat
fix PEAve all ave/time 1 ${Nr} ${Nf} v_PotEn file PotenE.dat
fix PEAve all ave/time 1 100000 ${Nf} v_PotEn file PotenE.dat
fix PEAve all ave/time 1 100000 100000 v_PotEn file PotenE.dat

compute T all temp
fix TempAve all ave/time ${Ne} ${Nr} ${Nf} c_T file temperature.dat
fix TempAve all ave/time 1 ${Nr} ${Nf} c_T file temperature.dat
fix TempAve all ave/time 1 100000 ${Nf} c_T file temperature.dat
fix TempAve all ave/time 1 100000 100000 c_T file temperature.dat

compute P all pressure T
fix PressAve all ave/time ${Ne} ${Nr} ${Nf} c_P file pressure.dat
fix PressAve all ave/time 1 ${Nr} ${Nf} c_P file pressure.dat
fix PressAve all ave/time 1 100000 ${Nf} c_P file pressure.dat
fix PressAve all ave/time 1 100000 100000 c_P file pressure.dat


# computing self-diffusion and Onsager coefficients using the OCTP plugin
compute positions all position
fix f1 all ordern diffusivity ${Ndiff} ${Nwrit} c_positions nb ${nb} nbe ${nbe}
fix f1 all ordern diffusivity 1000 ${Nwrit} c_positions nb ${nb} nbe ${nbe}
fix f1 all ordern diffusivity 1000 100000 c_positions nb ${nb} nbe ${nbe}
fix f1 all ordern diffusivity 1000 100000 c_positions nb 10 nbe ${nbe}
fix f1 all ordern diffusivity 1000 100000 c_positions nb 10 nbe 20


# computing shear and bulk viscosities  using the OCTP plugin
fix f2 all ordern viscosity ${Nvisc} ${Nwrit} c_P nb ${nb} nbe ${nbe}
fix f2 all ordern viscosity 5 ${Nwrit} c_P nb ${nb} nbe ${nbe}
fix f2 all ordern viscosity 5 100000 c_P nb ${nb} nbe ${nbe}
fix f2 all ordern viscosity 5 100000 c_P nb 10 nbe ${nbe}
fix f2 all ordern viscosity 5 100000 c_P nb 10 nbe 20


# computing thermal conductivity using the OCTP plugin
compute KE all ke/atom
compute PE all pe/atom
compute ST all stress/atom NULL virial
compute heatflux all heat/flux KE PE ST
fix f3 all ordern thermalconductivity ${Ncond} ${Nwrit} c_heatflux nb ${nb} nbe ${nbe}
fix f3 all ordern thermalconductivity 5 ${Nwrit} c_heatflux nb ${nb} nbe ${nbe}
fix f3 all ordern thermalconductivity 5 100000 c_heatflux nb ${nb} nbe ${nbe}
fix f3 all ordern thermalconductivity 5 100000 c_heatflux nb 10 nbe ${nbe}
fix f3 all ordern thermalconductivity 5 100000 c_heatflux nb 10 nbe 20


# computing the RDF for all group pairs
compute rdfs all rdf/ext Nbin ${binnum} Nwrite ${Nrdfw}
compute rdfs all rdf/ext Nbin 2000 Nwrite ${Nrdfw}
compute rdfs all rdf/ext Nbin 2000 Nwrite 1000
fix f4 all ave/time 1 1 ${Nrdfe} c_rdfs
fix f4 all ave/time 1 1 1000 c_rdfs

dump trjectory all xyz ${Nd} movie.xyz
dump trjectory all xyz 100000 movie.xyz
dump_modify trjectory element Ow H K Cl

run ${Nrun1}
run 250000
PPPM initialization ...
  extracting TIP4P info from pair style
  using 12-bit tables for long-range coulomb (../kspace.cpp:321)
  G vector (1/distance) = 0.310405
  grid = 24 24 24
  stencil order = 5
  estimated absolute RMS force accuracy = 0.0036586
  estimated relative force accuracy = 1.10178e-05
  using double precision FFTs
  3d grid and FFT values/proc = 5415 1152
Per MPI rank memory allocation (min/avg/max) = 14.31 | 14.31 | 14.32 Mbytes
Step Density Temp Press TotEng 
       0    1.1529113    307.54683   -456.54658   -8360.1457 
  100000    1.1529113    294.12749   -802.67541   -8412.5525 
  200000    1.1529113    303.33256   -688.11304   -8451.6056 
  250000    1.1529113    287.60813    -271.1765   -8456.4586 
Loop time of 1282.36 on 12 procs for 250000 steps with 1572 atoms

Performance: 33.688 ns/day, 0.712 hours/ns, 194.953 timesteps/s
93.3% CPU use with 12 MPI tasks x no OpenMP threads

MPI task timing breakdown:
Section |  min time  |  avg time  |  max time  |%varavg| %total
---------------------------------------------------------------
Pair    | 714.63     | 763.18     | 806.32     | 120.2 | 59.51
Bond    | 3.3345     | 3.4011     | 3.468      |   1.9 |  0.27
Kspace  | 311.65     | 354.9      | 403.49     | 176.8 | 27.68
Neigh   | 40.546     | 40.589     | 40.64      |   0.4 |  3.17
Comm    | 38.828     | 39.172     | 39.553     |   3.7 |  3.05
Output  | 0.06938    | 0.071544   | 0.0722     |   0.3 |  0.01
Modify  | 75.723     | 75.897     | 76.14      |   1.3 |  5.92
Other   |            | 5.15       |            |       |  0.40

Nlocal:    131 ave 143 max 120 min
Histogram: 2 0 1 2 2 1 1 1 0 2
Nghost:    4206.58 ave 4243 max 4162 min
Histogram: 2 1 0 1 0 1 3 1 1 2
Neighs:    47719.2 ave 53396 max 40440 min
Histogram: 1 0 0 2 2 1 2 2 1 1

Total # of neighbors = 572630
Ave neighs/atom = 364.268
Ave special neighs/atom = 1.9084
Neighbor list builds = 19864
Dangerous builds = 0
shell bash copy_files.sh dt_${tstep} 00.25Mstep
shell bash copy_files.sh dt_2 00.25Mstep

run ${Nrun1}
run 250000
PPPM initialization ...
  extracting TIP4P info from pair style
  using 12-bit tables for long-range coulomb (../kspace.cpp:321)
  G vector (1/distance) = 0.310405
  grid = 24 24 24
  stencil order = 5
  estimated absolute RMS force accuracy = 0.0036586
  estimated relative force accuracy = 1.10178e-05
  using double precision FFTs
  3d grid and FFT values/proc = 5415 1152
Per MPI rank memory allocation (min/avg/max) = 14.31 | 14.31 | 14.32 Mbytes
Step Density Temp Press TotEng 
  250000    1.1529113    287.60813   -271.39457   -8456.4586 
  300000    1.1529113    277.75108    -130.4233   -8443.1541 
  400000    1.1529113    289.15682    450.12888   -8445.2981 
  500000    1.1529113    303.20353   -1489.3773   -8378.4245 
Loop time of 1292.66 on 12 procs for 250000 steps with 1572 atoms

Performance: 33.420 ns/day, 0.718 hours/ns, 193.400 timesteps/s
92.9% CPU use with 12 MPI tasks x no OpenMP threads

MPI task timing breakdown:
Section |  min time  |  avg time  |  max time  |%varavg| %total
---------------------------------------------------------------
Pair    | 706.5      | 762.53     | 837.15     | 148.6 | 58.99
Bond    | 3.2923     | 3.3902     | 3.4519     |   2.5 |  0.26
Kspace  | 291.25     | 365.63     | 421.65     | 214.9 | 28.29
Neigh   | 40.7       | 40.745     | 40.79      |   0.4 |  3.15
Comm    | 38.884     | 39.249     | 39.621     |   4.1 |  3.04
Output  | 0.10129    | 0.10355    | 0.10426    |   0.2 |  0.01
Modify  | 75.702     | 75.862     | 76.097     |   1.2 |  5.87
Other   |            | 5.152      |            |       |  0.40

Nlocal:    131 ave 139 max 119 min
Histogram: 2 0 0 2 0 1 1 0 4 2
Nghost:    4199.42 ave 4244 max 4132 min
Histogram: 2 0 0 0 1 3 2 0 1 3
Neighs:    47717.4 ave 52524 max 43126 min
Histogram: 2 0 1 2 1 3 0 0 1 2

Total # of neighbors = 572609
Ave neighs/atom = 364.255
Ave special neighs/atom = 1.9084
Neighbor list builds = 19875
Dangerous builds = 0
shell bash copy_files.sh dt_${tstep} 00.50Mstep
shell bash copy_files.sh dt_2 00.50Mstep

run ${Nrun1}
run 250000
PPPM initialization ...
  extracting TIP4P info from pair style
  using 12-bit tables for long-range coulomb (../kspace.cpp:321)
  G vector (1/distance) = 0.310405
  grid = 24 24 24
  stencil order = 5
  estimated absolute RMS force accuracy = 0.0036586
  estimated relative force accuracy = 1.10178e-05
  using double precision FFTs
  3d grid and FFT values/proc = 5415 1152
Per MPI rank memory allocation (min/avg/max) = 14.31 | 14.31 | 14.32 Mbytes
Step Density Temp Press TotEng 
  500000    1.1529113    303.20353   -1489.9915   -8378.4245 
  600000    1.1529113    299.37141     538.8525   -8374.5596 
  700000    1.1529113      302.413   -309.01579   -8371.5179 
  750000    1.1529113    311.87471    95.378625   -8402.4361 
Loop time of 1283.76 on 12 procs for 250000 steps with 1572 atoms

Performance: 33.651 ns/day, 0.713 hours/ns, 194.741 timesteps/s
93.2% CPU use with 12 MPI tasks x no OpenMP threads

MPI task timing breakdown:
Section |  min time  |  avg time  |  max time  |%varavg| %total
---------------------------------------------------------------
Pair    | 712.2      | 760.93     | 816.82     | 133.5 | 59.27
Bond    | 3.3243     | 3.3968     | 3.4464     |   2.1 |  0.26
Kspace  | 302.89     | 358.53     | 407.39     | 194.9 | 27.93
Neigh   | 40.588     | 40.622     | 40.676     |   0.4 |  3.16
Comm    | 38.898     | 39.243     | 39.575     |   4.0 |  3.06
Output  | 0.06771    | 0.069061   | 0.069479   |   0.2 |  0.01
Modify  | 75.643     | 75.808     | 76.042     |   1.2 |  5.91
Other   |            | 5.159      |            |       |  0.40

Nlocal:    131 ave 138 max 120 min
Histogram: 1 0 1 1 1 2 1 0 3 2
Nghost:    4194.08 ave 4238 max 4161 min
Histogram: 3 2 1 0 1 0 1 2 1 1
Neighs:    47704.8 ave 52744 max 42739 min
Histogram: 2 0 2 1 2 0 2 0 1 2

Total # of neighbors = 572458
Ave neighs/atom = 364.159
Ave special neighs/atom = 1.9084
Neighbor list builds = 19876
Dangerous builds = 0
shell bash copy_files.sh dt_${tstep} 00.75Mstep
shell bash copy_files.sh dt_2 00.75Mstep

run ${Nrun1}
run 250000
PPPM initialization ...
  extracting TIP4P info from pair style
  using 12-bit tables for long-range coulomb (../kspace.cpp:321)
  G vector (1/distance) = 0.310405
  grid = 24 24 24
  stencil order = 5
  estimated absolute RMS force accuracy = 0.0036586
  estimated relative force accuracy = 1.10178e-05
  using double precision FFTs
  3d grid and FFT values/proc = 5415 1152
Per MPI rank memory allocation (min/avg/max) = 14.31 | 14.31 | 14.32 Mbytes
Step Density Temp Press TotEng 
  750000    1.1529113    311.87471    94.680302   -8402.4361 
  800000    1.1529113    292.51842   -441.32051   -8389.0785 
  900000    1.1529113    298.74899    395.63282   -8421.0219 
 1000000    1.1529113    297.77305    184.64835   -8385.2911 
Loop time of 1289.71 on 12 procs for 250000 steps with 1572 atoms

Performance: 33.496 ns/day, 0.717 hours/ns, 193.842 timesteps/s
93.0% CPU use with 12 MPI tasks x no OpenMP threads

MPI task timing breakdown:
Section |  min time  |  avg time  |  max time  |%varavg| %total
---------------------------------------------------------------
Pair    | 695.16     | 762.56     | 824.51     | 150.9 | 59.13
Bond    | 3.2874     | 3.388      | 3.4548     |   2.6 |  0.26
Kspace  | 300.45     | 362.79     | 430.23     | 219.3 | 28.13
Neigh   | 40.626     | 40.668     | 40.722     |   0.4 |  3.15
Comm    | 38.934     | 39.305     | 39.653     |   4.1 |  3.05
Output  | 0.10108    | 0.10227    | 0.10275    |   0.1 |  0.01
Modify  | 75.616     | 75.776     | 75.969     |   1.2 |  5.88
Other   |            | 5.12       |            |       |  0.40

Nlocal:    131 ave 141 max 115 min
Histogram: 1 0 1 0 1 3 1 2 0 3
Nghost:    4202.92 ave 4305 max 4099 min
Histogram: 1 0 2 2 0 2 2 2 0 1
Neighs:    47667.2 ave 55081 max 41688 min
Histogram: 1 1 3 1 1 0 3 1 0 1

Total # of neighbors = 572007
Ave neighs/atom = 363.872
Ave special neighs/atom = 1.9084
Neighbor list builds = 19855
Dangerous builds = 0
shell bash copy_files.sh dt_${tstep} 01.00Mstep
shell bash copy_files.sh dt_2 01.00Mstep

run ${Nrun1}
run 250000
PPPM initialization ...
  extracting TIP4P info from pair style
  using 12-bit tables for long-range coulomb (../kspace.cpp:321)
  G vector (1/distance) = 0.310405
  grid = 24 24 24
  stencil order = 5
  estimated absolute RMS force accuracy = 0.0036586
  estimated relative force accuracy = 1.10178e-05
  using double precision FFTs
  3d grid and FFT values/proc = 5415 1152
Per MPI rank memory allocation (min/avg/max) = 14.31 | 14.31 | 14.32 Mbytes
Step Density Temp Press TotEng 
 1000000    1.1529113    297.77305    183.83489   -8385.2911 
 1100000    1.1529113     298.8399    36.094671    -8422.269 
 1200000    1.1529113    298.21183    70.354079    -8339.856 
 1250000    1.1529113    292.98677    -624.1612   -8402.6815 
Loop time of 1278.15 on 12 procs for 250000 steps with 1572 atoms

Performance: 33.799 ns/day, 0.710 hours/ns, 195.595 timesteps/s
93.4% CPU use with 12 MPI tasks x no OpenMP threads

MPI task timing breakdown:
Section |  min time  |  avg time  |  max time  |%varavg| %total
---------------------------------------------------------------
Pair    | 707.47     | 762.45     | 807        | 126.2 | 59.65
Bond    | 3.3462     | 3.4081     | 3.471      |   2.2 |  0.27
Kspace  | 307.05     | 351.71     | 406.68     | 186.0 | 27.52
Neigh   | 40.426     | 40.463     | 40.504     |   0.3 |  3.17
Comm    | 38.808     | 39.196     | 39.564     |   4.1 |  3.07
Output  | 0.068003   | 0.06971    | 0.070373   |   0.2 |  0.01
Modify  | 75.573     | 75.731     | 75.957     |   1.2 |  5.93
Other   |            | 5.126      |            |       |  0.40

Nlocal:    131 ave 144 max 120 min
Histogram: 1 1 2 2 0 2 2 1 0 1
Nghost:    4204.33 ave 4306 max 4143 min
Histogram: 2 2 0 3 3 0 0 0 1 1
Neighs:    47721.2 ave 52657 max 42505 min
Histogram: 3 0 0 0 1 2 4 0 0 2

Total # of neighbors = 572655
Ave neighs/atom = 364.284
Ave special neighs/atom = 1.9084
Neighbor list builds = 19892
Dangerous builds = 0
shell bash copy_files.sh dt_${tstep} 01.25Mstep
shell bash copy_files.sh dt_2 01.25Mstep

run ${Nrun1}
run 250000
PPPM initialization ...
  extracting TIP4P info from pair style
  using 12-bit tables for long-range coulomb (../kspace.cpp:321)
  G vector (1/distance) = 0.310405
  grid = 24 24 24
  stencil order = 5
  estimated absolute RMS force accuracy = 0.0036586
  estimated relative force accuracy = 1.10178e-05
  using double precision FFTs
  3d grid and FFT values/proc = 5415 1152
Per MPI rank memory allocation (min/avg/max) = 14.31 | 14.31 | 14.32 Mbytes
Step Density Temp Press TotEng 
 1250000    1.1529113    292.98677   -623.83457   -8402.6815 
 1300000    1.1529113    301.96217    204.01879   -8360.0918 
 1400000    1.1529113    307.73027   -229.58231   -8366.5489 
 1500000    1.1529113    303.91715    -364.8455   -8446.0527 
Loop time of 1285.87 on 12 procs for 250000 steps with 1572 atoms

Performance: 33.596 ns/day, 0.714 hours/ns, 194.421 timesteps/s
93.3% CPU use with 12 MPI tasks x no OpenMP threads

MPI task timing breakdown:
Section |  min time  |  avg time  |  max time  |%varavg| %total
---------------------------------------------------------------
Pair    | 703.65     | 765.3      | 807.08     | 134.2 | 59.52
Bond    | 3.3102     | 3.4019     | 3.4797     |   2.9 |  0.26
Kspace  | 314.69     | 356.27     | 417.92     | 197.3 | 27.71
Neigh   | 40.496     | 40.546     | 40.61      |   0.5 |  3.15
Comm    | 38.826     | 39.21      | 39.56      |   4.0 |  3.05
Output  | 0.10079    | 0.10272    | 0.10323    |   0.2 |  0.01
Modify  | 75.713     | 75.877     | 76.141     |   1.3 |  5.90
Other   |            | 5.16       |            |       |  0.40

Nlocal:    131 ave 148 max 117 min
Histogram: 2 0 0 4 2 1 1 0 1 1
Nghost:    4183.25 ave 4283 max 4104 min
Histogram: 2 0 1 3 1 2 1 1 0 1
Neighs:    47723.2 ave 56617 max 41522 min
Histogram: 3 1 1 1 2 1 0 1 1 1

Total # of neighbors = 572678
Ave neighs/atom = 364.299
Ave special neighs/atom = 1.9084
Neighbor list builds = 19874
Dangerous builds = 0
shell bash copy_files.sh dt_${tstep} 01.50Mstep
shell bash copy_files.sh dt_2 01.50Mstep

run ${Nrun1}
run 250000
PPPM initialization ...
  extracting TIP4P info from pair style
  using 12-bit tables for long-range coulomb (../kspace.cpp:321)
  G vector (1/distance) = 0.310405
  grid = 24 24 24
  stencil order = 5
  estimated absolute RMS force accuracy = 0.0036586
  estimated relative force accuracy = 1.10178e-05
  using double precision FFTs
  3d grid and FFT values/proc = 5415 1152
Per MPI rank memory allocation (min/avg/max) = 14.31 | 14.31 | 14.32 Mbytes
Step Density Temp Press TotEng 
 1500000    1.1529113    303.91715   -365.21518   -8446.0527 
 1600000    1.1529113     294.2704   -669.25723   -8465.6855 
 1700000    1.1529113    299.09027   -1458.1082   -8437.5102 
 1750000    1.1529113    294.46485    1119.3652   -8360.8019 
Loop time of 1284.97 on 12 procs for 250000 steps with 1572 atoms

Performance: 33.619 ns/day, 0.714 hours/ns, 194.557 timesteps/s
93.1% CPU use with 12 MPI tasks x no OpenMP threads

MPI task timing breakdown:
Section |  min time  |  avg time  |  max time  |%varavg| %total
---------------------------------------------------------------
Pair    | 703.15     | 764.24     | 817.14     | 147.6 | 59.48
Bond    | 3.2862     | 3.3847     | 3.4288     |   2.5 |  0.26
Kspace  | 303.86     | 356.5      | 417.57     | 216.6 | 27.74
Neigh   | 40.512     | 40.547     | 40.6       |   0.4 |  3.16
Comm    | 38.806     | 39.243     | 39.586     |   4.3 |  3.05
Output  | 0.067629   | 0.069247   | 0.06969    |   0.2 |  0.01
Modify  | 75.704     | 75.851     | 76.094     |   1.2 |  5.90
Other   |            | 5.131      |            |       |  0.40

Nlocal:    131 ave 145 max 120 min
Histogram: 2 1 2 1 2 0 0 1 2 1
Nghost:    4223 ave 4280 max 4167 min
Histogram: 2 0 1 1 3 0 2 0 2 1
Neighs:    47733.7 ave 53329 max 40421 min
Histogram: 1 0 1 0 3 1 2 1 2 1

Total # of neighbors = 572804
Ave neighs/atom = 364.379
Ave special neighs/atom = 1.9084
Neighbor list builds = 19826
Dangerous builds = 0
shell bash copy_files.sh dt_${tstep} 01.75Mstep
shell bash copy_files.sh dt_2 01.75Mstep

run ${Nrun1}
run 250000
PPPM initialization ...
  extracting TIP4P info from pair style
  using 12-bit tables for long-range coulomb (../kspace.cpp:321)
  G vector (1/distance) = 0.310405
  grid = 24 24 24
  stencil order = 5
  estimated absolute RMS force accuracy = 0.0036586
  estimated relative force accuracy = 1.10178e-05
  using double precision FFTs
  3d grid and FFT values/proc = 5415 1152
Per MPI rank memory allocation (min/avg/max) = 14.31 | 14.31 | 14.32 Mbytes
Step Density Temp Press TotEng 
 1750000    1.1529113    294.46485    1119.4469   -8360.8019 
 1800000    1.1529113    295.39329    589.16501   -8394.7679 
 1900000    1.1529113    300.09578    841.31074   -8342.5897 
 2000000    1.1529113    294.02863   -109.11543   -8331.0511 
Loop time of 1284.2 on 12 procs for 250000 steps with 1572 atoms

Performance: 33.640 ns/day, 0.713 hours/ns, 194.674 timesteps/s
93.3% CPU use with 12 MPI tasks x no OpenMP threads

MPI task timing breakdown:
Section |  min time  |  avg time  |  max time  |%varavg| %total
---------------------------------------------------------------
Pair    | 697.95     | 764.27     | 827.88     | 151.7 | 59.51
Bond    | 3.2713     | 3.3741     | 3.4197     |   2.7 |  0.26
Kspace  | 292.35     | 355.75     | 422.06     | 222.8 | 27.70
Neigh   | 40.462     | 40.502     | 40.544     |   0.4 |  3.15
Comm    | 38.854     | 39.25      | 39.591     |   4.0 |  3.06
Output  | 0.10145    | 0.10339    | 0.10374    |   0.2 |  0.01
Modify  | 75.629     | 75.797     | 76.056     |   1.2 |  5.90
Other   |            | 5.156      |            |       |  0.40

Nlocal:    131 ave 141 max 123 min
Histogram: 2 2 2 1 0 0 0 3 1 1
Nghost:    4204.42 ave 4250 max 4181 min
Histogram: 4 0 2 0 4 0 1 0 0 1
Neighs:    47698.1 ave 52812 max 43279 min
Histogram: 2 1 1 2 1 1 1 1 0 2

Total # of neighbors = 572377
Ave neighs/atom = 364.108
Ave special neighs/atom = 1.9084
Neighbor list builds = 19842
Dangerous builds = 0
shell bash copy_files.sh dt_${tstep} 02.00step
shell bash copy_files.sh dt_2 02.00step

run ${Nrun2}
run 1000000
PPPM initialization ...
  extracting TIP4P info from pair style
  using 12-bit tables for long-range coulomb (../kspace.cpp:321)
  G vector (1/distance) = 0.310405
  grid = 24 24 24
  stencil order = 5
  estimated absolute RMS force accuracy = 0.0036586
  estimated relative force accuracy = 1.10178e-05
  using double precision FFTs
  3d grid and FFT values/proc = 5415 1152
Per MPI rank memory allocation (min/avg/max) = 14.31 | 14.31 | 14.32 Mbytes
Step Density Temp Press TotEng 
 2000000    1.1529113    294.02863   -109.28405   -8331.0511 
 2100000    1.1529113    297.68191   -97.960413   -8394.0049 
 2200000    1.1529113    309.42127   -260.74691    -8348.013 
 2300000    1.1529113    309.81734    594.66579   -8389.5875 
 2400000    1.1529113     298.5405    871.82993   -8380.8929 
 2500000    1.1529113     303.5504    370.97781   -8412.4582 
 2600000    1.1529113     295.3213    163.05812   -8420.4472 
 2700000    1.1529113    294.08924    730.21426   -8453.3454 
 2800000    1.1529113     303.3144    505.87051   -8415.4121 
 2900000    1.1529113    293.53595   -796.19557   -8448.9599 
 3000000    1.1529113    302.72787    1872.4433   -8366.7562 
Loop time of 5114.81 on 12 procs for 1000000 steps with 1572 atoms

Performance: 33.784 ns/day, 0.710 hours/ns, 195.511 timesteps/s
93.5% CPU use with 12 MPI tasks x no OpenMP threads

MPI task timing breakdown:
Section |  min time  |  avg time  |  max time  |%varavg| %total
---------------------------------------------------------------
Pair    | 2829       | 3062.6     | 3262.7     | 250.0 | 59.88
Bond    | 13.357     | 13.616     | 13.816     |   4.4 |  0.27
Kspace  | 1195       | 1395.5     | 1629.1     | 371.3 | 27.28
Neigh   | 161.81     | 161.97     | 162.17     |   0.8 |  3.17
Comm    | 155.54     | 156.95     | 158.46     |   8.1 |  3.07
Output  | 0.33637    | 0.34175    | 0.34324    |   0.3 |  0.01
Modify  | 302.61     | 303.29     | 304.24     |   2.4 |  5.93
Other   |            | 20.58      |            |       |  0.40

Nlocal:    131 ave 140 max 116 min
Histogram: 1 0 0 0 2 3 0 3 1 2
Nghost:    4228.75 ave 4285 max 4142 min
Histogram: 1 0 2 0 1 2 1 0 2 3
Neighs:    47716.9 ave 52224 max 41371 min
Histogram: 2 1 0 1 1 0 1 1 2 3

Total # of neighbors = 572603
Ave neighs/atom = 364.251
Ave special neighs/atom = 1.9084
Neighbor list builds = 79500
Dangerous builds = 0
shell bash copy_files.sh dt_${tstep} 03.00Mstep
shell bash copy_files.sh dt_2 03.00Mstep

run ${Nrun2}
run 1000000
PPPM initialization ...
  extracting TIP4P info from pair style
  using 12-bit tables for long-range coulomb (../kspace.cpp:321)
  G vector (1/distance) = 0.310405
  grid = 24 24 24
  stencil order = 5
  estimated absolute RMS force accuracy = 0.0036586
  estimated relative force accuracy = 1.10178e-05
  using double precision FFTs
  3d grid and FFT values/proc = 5415 1152
Per MPI rank memory allocation (min/avg/max) = 14.31 | 14.31 | 14.32 Mbytes
Step Density Temp Press TotEng 
 3000000    1.1529113    302.72787    1873.0559   -8366.7562 
 3100000    1.1529113    306.20999    538.91588    -8427.969 
 3200000    1.1529113    308.15877    -348.2291   -8312.4837 
 3300000    1.1529113    307.86765   -968.71111   -8373.9972 
 3400000    1.1529113    286.10253   -352.68822   -8456.7495 
 3500000    1.1529113    302.00516    263.43594   -8343.2516 
 3600000    1.1529113    312.17887    36.619372   -8363.8266 
 3700000    1.1529113    300.59061    1123.1754    -8347.471 
 3800000    1.1529113    287.61299   -700.57707   -8429.5336 
 3900000    1.1529113    297.66157   -115.33864   -8421.1593 
 4000000    1.1529113    301.09173   -637.69091   -8356.5718 
Loop time of 5139.35 on 12 procs for 1000000 steps with 1572 atoms

Performance: 33.623 ns/day, 0.714 hours/ns, 194.577 timesteps/s
93.3% CPU use with 12 MPI tasks x no OpenMP threads

MPI task timing breakdown:
Section |  min time  |  avg time  |  max time  |%varavg| %total
---------------------------------------------------------------
Pair    | 2856.5     | 3066.7     | 3250.8     | 268.8 | 59.67
Bond    | 13.291     | 13.584     | 13.837     |   5.1 |  0.26
Kspace  | 1230.2     | 1415.8     | 1627.4     | 396.8 | 27.55
Neigh   | 162.14     | 162.3      | 162.5      |   0.8 |  3.16
Comm    | 155.5      | 156.91     | 158.27     |   8.0 |  3.05
Output  | 0.33639    | 0.33727    | 0.33823    |   0.1 |  0.01
Modify  | 303.04     | 303.65     | 304.05     |   1.8 |  5.91
Other   |            | 20.04      |            |       |  0.39

Nlocal:    131 ave 151 max 116 min
Histogram: 2 0 2 1 3 2 0 0 1 1
Nghost:    4188.17 ave 4237 max 4113 min
Histogram: 1 1 0 1 1 0 2 2 2 2
Neighs:    47691.3 ave 57200 max 39189 min
Histogram: 1 0 2 1 3 2 1 1 0 1

Total # of neighbors = 572296
Ave neighs/atom = 364.056
Ave special neighs/atom = 1.9084
Neighbor list builds = 79437
Dangerous builds = 0
shell bash copy_files.sh dt_${tstep} 04.00Mstep
shell bash copy_files.sh dt_2 04.00Mstep

run ${Nrun2}
run 1000000
PPPM initialization ...
  extracting TIP4P info from pair style
  using 12-bit tables for long-range coulomb (../kspace.cpp:321)
  G vector (1/distance) = 0.310405
  grid = 24 24 24
  stencil order = 5
  estimated absolute RMS force accuracy = 0.0036586
  estimated relative force accuracy = 1.10178e-05
  using double precision FFTs
  3d grid and FFT values/proc = 5415 1152
Per MPI rank memory allocation (min/avg/max) = 14.31 | 14.31 | 14.32 Mbytes
Step Density Temp Press TotEng 
 4000000    1.1529113    301.09173   -637.23987   -8356.5718 
 4100000    1.1529113    307.18519    335.18072   -8405.1547 
 4200000    1.1529113    292.71293   -164.84485   -8363.4575 
 4300000    1.1529113    298.21485    834.68937   -8412.8226 
 4400000    1.1529113    296.18609    173.68296   -8375.8041 
 4500000    1.1529113    294.55979   -291.79498   -8357.7835 
 4600000    1.1529113    304.73643   -623.07422   -8355.5219 
 4700000    1.1529113    295.93289    614.94447   -8398.2499 
 4800000    1.1529113    288.59198   -150.55881   -8426.4612 
 4900000    1.1529113    288.87654    500.10931   -8441.9898 
 5000000    1.1529113    296.31039   -1258.6961   -8377.4978 
Loop time of 5105.06 on 12 procs for 1000000 steps with 1572 atoms

Performance: 33.849 ns/day, 0.709 hours/ns, 195.884 timesteps/s
93.6% CPU use with 12 MPI tasks x no OpenMP threads

MPI task timing breakdown:
Section |  min time  |  avg time  |  max time  |%varavg| %total
---------------------------------------------------------------
Pair    | 2842       | 3056       | 3215.2     | 220.0 | 59.86
Bond    | 13.318     | 13.7       | 13.965     |   4.8 |  0.27
Kspace  | 1232.4     | 1393       | 1607.1     | 326.7 | 27.29
Neigh   | 161.58     | 161.72     | 161.92     |   0.7 |  3.17
Comm    | 155.35     | 156.77     | 158.18     |   7.5 |  3.07
Output  | 0.3366     | 0.34302    | 0.34428    |   0.3 |  0.01
Modify  | 302.29     | 302.95     | 303.81     |   2.3 |  5.93
Other   |            | 20.56      |            |       |  0.40

Nlocal:    131 ave 137 max 118 min
Histogram: 1 0 0 0 1 0 5 1 3 1
Nghost:    4203.5 ave 4263 max 4116 min
Histogram: 1 1 1 1 1 1 0 1 2 3
Neighs:    47736.9 ave 53637 max 40269 min
Histogram: 1 0 1 0 2 2 4 1 0 1

Total # of neighbors = 572843
Ave neighs/atom = 364.404
Ave special neighs/atom = 1.9084
Neighbor list builds = 79483
Dangerous builds = 0
shell bash copy_files.sh dt_${tstep} 05.00Mstep
shell bash copy_files.sh dt_2 05.00Mstep

run ${Nrun2}
run 1000000
PPPM initialization ...
  extracting TIP4P info from pair style
  using 12-bit tables for long-range coulomb (../kspace.cpp:321)
  G vector (1/distance) = 0.310405
  grid = 24 24 24
  stencil order = 5
  estimated absolute RMS force accuracy = 0.0036586
  estimated relative force accuracy = 1.10178e-05
  using double precision FFTs
  3d grid and FFT values/proc = 5415 1152
Per MPI rank memory allocation (min/avg/max) = 14.31 | 14.31 | 14.32 Mbytes
Step Density Temp Press TotEng 
 5000000    1.1529113    296.31039   -1258.5246   -8377.4978 
 5100000    1.1529113    303.68239    208.09601   -8365.0013 
 5200000    1.1529113    288.53098    65.234708   -8365.2343 
 5300000    1.1529113    293.28727    560.25898   -8445.6825 
 5400000    1.1529113    288.96779   -879.58708   -8391.8224 
 5500000    1.1529113     298.0411   -253.63263   -8367.5645 
 5600000    1.1529113     289.5152    241.41552   -8400.3874 
 5700000    1.1529113    301.46658    1366.5087   -8383.7448 
 5800000    1.1529113    299.30148    265.27268   -8411.7222 
 5900000    1.1529113    292.76582     504.8097    -8350.834 
 6000000    1.1529113    306.00193    1387.6403   -8386.4159 
Loop time of 5149.57 on 12 procs for 1000000 steps with 1572 atoms

Performance: 33.556 ns/day, 0.715 hours/ns, 194.191 timesteps/s
93.2% CPU use with 12 MPI tasks x no OpenMP threads

MPI task timing breakdown:
Section |  min time  |  avg time  |  max time  |%varavg| %total
---------------------------------------------------------------
Pair    | 2809.3     | 3060.5     | 3256.4     | 284.1 | 59.43
Bond    | 13.225     | 13.558     | 13.804     |   5.3 |  0.26
Kspace  | 1234.2     | 1431.5     | 1682.7     | 416.6 | 27.80
Neigh   | 162.17     | 162.34     | 162.57     |   0.9 |  3.15
Comm    | 155.46     | 156.84     | 158.13     |   7.5 |  3.05
Output  | 0.33772    | 0.34363    | 0.34493    |   0.3 |  0.01
Modify  | 303.21     | 303.89     | 304.84     |   2.4 |  5.90
Other   |            | 20.57      |            |       |  0.40

Nlocal:    131 ave 146 max 117 min
Histogram: 1 0 1 1 3 4 0 1 0 1
Nghost:    4204.17 ave 4266 max 4151 min
Histogram: 2 0 1 2 0 4 1 1 0 1
Neighs:    47694.4 ave 53488 max 40780 min
Histogram: 1 0 1 1 3 2 0 2 0 2

Total # of neighbors = 572333
Ave neighs/atom = 364.08
Ave special neighs/atom = 1.9084
Neighbor list builds = 79446
Dangerous builds = 0
shell bash copy_files.sh dt_${tstep} 06.00Mstep
shell bash copy_files.sh dt_2 06.00Mstep

run ${Nrun2}
run 1000000
PPPM initialization ...
  extracting TIP4P info from pair style
  using 12-bit tables for long-range coulomb (../kspace.cpp:321)
  G vector (1/distance) = 0.310405
  grid = 24 24 24
  stencil order = 5
  estimated absolute RMS force accuracy = 0.0036586
  estimated relative force accuracy = 1.10178e-05
  using double precision FFTs
  3d grid and FFT values/proc = 5415 1152
Per MPI rank memory allocation (min/avg/max) = 14.31 | 14.31 | 14.32 Mbytes
Step Density Temp Press TotEng 
 6000000    1.1529113    306.00193    1387.0676   -8386.4159 
 6100000    1.1529113    303.02122    907.03019   -8352.4886 
 6200000    1.1529113    297.05074    68.603627   -8403.1801 
 6300000    1.1529113    288.23978   -329.40378   -8406.7238 
 6400000    1.1529113    294.62719   -318.85221   -8358.2823 
 6500000    1.1529113    301.56915    224.74406   -8451.5131 
 6600000    1.1529113    290.73286     17.08244   -8490.0213 
 6700000    1.1529113    312.09476    803.41653   -8342.5806 
 6800000    1.1529113    285.45985    442.95344   -8450.0058 
 6900000    1.1529113    289.55155    552.22283   -8393.1416 
 7000000    1.1529113    288.78706   -789.46243   -8420.0889 
Loop time of 5129.93 on 12 procs for 1000000 steps with 1572 atoms

Performance: 33.685 ns/day, 0.712 hours/ns, 194.935 timesteps/s
93.3% CPU use with 12 MPI tasks x no OpenMP threads

MPI task timing breakdown:
Section |  min time  |  avg time  |  max time  |%varavg| %total
---------------------------------------------------------------
Pair    | 2833.2     | 3055.6     | 3241.7     | 257.8 | 59.56
Bond    | 13.276     | 13.629     | 13.921     |   6.0 |  0.27
Kspace  | 1231.3     | 1416.5     | 1639       | 379.8 | 27.61
Neigh   | 162.17     | 162.36     | 162.62     |   1.0 |  3.16
Comm    | 155.54     | 157.01     | 158.3      |   7.7 |  3.06
Output  | 0.33755    | 0.34297    | 0.34439    |   0.3 |  0.01
Modify  | 303.26     | 303.91     | 304.83     |   2.3 |  5.92
Other   |            | 20.54      |            |       |  0.40

Nlocal:    131 ave 141 max 120 min
Histogram: 1 0 3 0 2 1 2 0 2 1
Nghost:    4229.5 ave 4295 max 4158 min
Histogram: 2 0 0 1 2 2 2 1 1 1
Neighs:    47711 ave 53665 max 42938 min
Histogram: 2 1 0 2 3 1 0 1 1 1

Total # of neighbors = 572532
Ave neighs/atom = 364.206
Ave special neighs/atom = 1.9084
Neighbor list builds = 79502
Dangerous builds = 0
shell bash copy_files.sh dt_${tstep} 07.00Mstep
shell bash copy_files.sh dt_2 07.00Mstep

run ${Nrun2}
run 1000000
PPPM initialization ...
  extracting TIP4P info from pair style
  using 12-bit tables for long-range coulomb (../kspace.cpp:321)
  G vector (1/distance) = 0.310405
  grid = 24 24 24
  stencil order = 5
  estimated absolute RMS force accuracy = 0.0036586
  estimated relative force accuracy = 1.10178e-05
  using double precision FFTs
  3d grid and FFT values/proc = 5415 1152
Per MPI rank memory allocation (min/avg/max) = 14.31 | 14.31 | 14.32 Mbytes
Step Density Temp Press TotEng 
 7000000    1.1529113    288.78706   -789.52611   -8420.0889 
 7100000    1.1529113    284.94055   -168.50141   -8446.6579 
 7200000    1.1529113    313.62996   -34.001705   -8346.1816 
 7300000    1.1529113    302.20728   -367.78181   -8403.9122 
 7400000    1.1529113    301.57828    79.724604   -8384.3756 
 7500000    1.1529113    291.08542   -771.52578   -8402.2957 
 7600000    1.1529113    301.55092   -432.02104   -8297.0925 
 7700000    1.1529113    313.11528   -143.45328   -8305.4675 
 7800000    1.1529113    293.66208    554.90106   -8422.5087 
 7900000    1.1529113    300.02963   -340.44618   -8398.7235 
 8000000    1.1529113    304.80432    232.41471   -8390.3605 
Loop time of 5131.35 on 12 procs for 1000000 steps with 1572 atoms

Performance: 33.675 ns/day, 0.713 hours/ns, 194.881 timesteps/s
93.4% CPU use with 12 MPI tasks x no OpenMP threads

MPI task timing breakdown:
Section |  min time  |  avg time  |  max time  |%varavg| %total
---------------------------------------------------------------
Pair    | 2817.8     | 3063.1     | 3225.7     | 235.0 | 59.69
Bond    | 13.352     | 13.652     | 13.92      |   4.8 |  0.27
Kspace  | 1248.2     | 1411.3     | 1656.7     | 347.1 | 27.50
Neigh   | 161.81     | 161.95     | 162.16     |   0.8 |  3.16
Comm    | 155.51     | 156.93     | 158.42     |   7.7 |  3.06
Output  | 0.33734    | 0.34315    | 0.34464    |   0.3 |  0.01
Modify  | 302.74     | 303.43     | 304.35     |   2.4 |  5.91
Other   |            | 20.64      |            |       |  0.40

Nlocal:    131 ave 148 max 119 min
Histogram: 1 1 1 4 2 0 2 0 0 1
Nghost:    4193.67 ave 4262 max 4102 min
Histogram: 1 0 2 2 0 1 0 2 1 3
Neighs:    47697.9 ave 53292 max 44786 min
Histogram: 3 3 2 0 0 1 1 0 1 1

Total # of neighbors = 572375
Ave neighs/atom = 364.106
Ave special neighs/atom = 1.9084
Neighbor list builds = 79463
Dangerous builds = 0
shell bash copy_files.sh dt_${tstep} 08.00Mstep
shell bash copy_files.sh dt_2 08.00Mstep

run ${Nrun2}
run 1000000
PPPM initialization ...
  extracting TIP4P info from pair style
  using 12-bit tables for long-range coulomb (../kspace.cpp:321)
  G vector (1/distance) = 0.310405
  grid = 24 24 24
  stencil order = 5
  estimated absolute RMS force accuracy = 0.0036586
  estimated relative force accuracy = 1.10178e-05
  using double precision FFTs
  3d grid and FFT values/proc = 5415 1152
Per MPI rank memory allocation (min/avg/max) = 14.31 | 14.31 | 14.32 Mbytes
Step Density Temp Press TotEng 
 8000000    1.1529113    304.80432    232.20424   -8390.3605 
 8100000    1.1529113     291.9861    560.15133   -8422.9967 
 8200000    1.1529113    307.27764   -224.17918   -8412.0455 
 8300000    1.1529113    302.69529    456.88833   -8411.3959 
 8400000    1.1529113    291.49819   -569.54468   -8401.8925 
 8500000    1.1529113    316.30906   -773.52404   -8397.4848 
 8600000    1.1529113    297.98223    670.21109   -8421.4428 
 8700000    1.1529113    296.20456   -660.13077   -8422.9927 
 8800000    1.1529113    301.07935    190.26037    -8446.541 
 8900000    1.1529113    291.72116   -46.528858   -8432.9397 
 9000000    1.1529113    301.52403    -2.879746   -8439.3889 
Loop time of 5153.99 on 12 procs for 1000000 steps with 1572 atoms

Performance: 33.527 ns/day, 0.716 hours/ns, 194.025 timesteps/s
93.2% CPU use with 12 MPI tasks x no OpenMP threads

MPI task timing breakdown:
Section |  min time  |  avg time  |  max time  |%varavg| %total
---------------------------------------------------------------
Pair    | 2860.2     | 3062.4     | 3270.6     | 263.3 | 59.42
Bond    | 13.281     | 13.589     | 13.91      |   5.4 |  0.26
Kspace  | 1226.9     | 1434.1     | 1636.2     | 385.8 | 27.83
Neigh   | 162.33     | 162.51     | 162.77     |   1.0 |  3.15
Comm    | 155.51     | 157.07     | 158.52     |   8.3 |  3.05
Output  | 0.33671    | 0.34185    | 0.34302    |   0.3 |  0.01
Modify  | 302.73     | 303.4      | 304.27     |   2.4 |  5.89
Other   |            | 20.56      |            |       |  0.40

Nlocal:    131 ave 139 max 123 min
Histogram: 3 0 0 2 0 3 0 2 0 2
Nghost:    4210.5 ave 4282 max 4146 min
Histogram: 1 0 2 4 1 0 2 0 0 2
Neighs:    47693.8 ave 51195 max 43733 min
Histogram: 1 0 2 1 2 0 2 2 0 2

Total # of neighbors = 572326
Ave neighs/atom = 364.075
Ave special neighs/atom = 1.9084
Neighbor list builds = 79489
Dangerous builds = 0
shell bash copy_files.sh dt_${tstep} 09.00Mstep
shell bash copy_files.sh dt_2 09.00Mstep

run ${Nrun2}
run 1000000
PPPM initialization ...
  extracting TIP4P info from pair style
  using 12-bit tables for long-range coulomb (../kspace.cpp:321)
  G vector (1/distance) = 0.310405
  grid = 24 24 24
  stencil order = 5
  estimated absolute RMS force accuracy = 0.0036586
  estimated relative force accuracy = 1.10178e-05
  using double precision FFTs
  3d grid and FFT values/proc = 5415 1152
Per MPI rank memory allocation (min/avg/max) = 14.31 | 14.31 | 14.32 Mbytes
Step Density Temp Press TotEng 
 9000000    1.1529113    301.52403   -2.4099894   -8439.3889 
 9100000    1.1529113    299.25898    128.52791   -8356.0539 
 9200000    1.1529113      293.428   -1034.7338   -8486.8663 
 9300000    1.1529113    290.14733   -1018.2279   -8449.0254 
 9400000    1.1529113    297.75794   -100.18249   -8403.6559 
 9500000    1.1529113    299.52911   -325.66647    -8376.831 
 9600000    1.1529113    306.02236   -245.08781   -8351.3423 
 9700000    1.1529113    296.17152    333.28068   -8349.9888 
 9800000    1.1529113     314.7803    369.31611   -8317.9774 
 9900000    1.1529113    320.67909    185.46465   -8339.1794 
10000000    1.1529113     291.2327    668.26262   -8443.9956 
Loop time of 5132.58 on 12 procs for 1000000 steps with 1572 atoms

Performance: 33.667 ns/day, 0.713 hours/ns, 194.834 timesteps/s
93.4% CPU use with 12 MPI tasks x no OpenMP threads

MPI task timing breakdown:
Section |  min time  |  avg time  |  max time  |%varavg| %total
---------------------------------------------------------------
Pair    | 2828.9     | 3062.1     | 3227.7     | 242.8 | 59.66
Bond    | 13.34      | 13.659     | 13.925     |   5.0 |  0.27
Kspace  | 1249.1     | 1413.8     | 1647       | 358.4 | 27.55
Neigh   | 161.63     | 161.77     | 161.99     |   0.9 |  3.15
Comm    | 155.29     | 156.84     | 158.34     |   8.1 |  3.06
Output  | 0.33752    | 0.34333    | 0.3447     |   0.3 |  0.01
Modify  | 302.86     | 303.51     | 304.43     |   2.4 |  5.91
Other   |            | 20.56      |            |       |  0.40

Nlocal:    131 ave 150 max 115 min
Histogram: 1 0 3 1 2 2 1 1 0 1
Nghost:    4192.92 ave 4263 max 4116 min
Histogram: 1 3 1 1 0 0 1 1 0 4
Neighs:    47704.8 ave 54475 max 38135 min
Histogram: 1 0 1 1 2 0 3 1 1 2

Total # of neighbors = 572457
Ave neighs/atom = 364.158
Ave special neighs/atom = 1.9084
Neighbor list builds = 79415
Dangerous builds = 0
shell bash copy_files.sh dt_${tstep} 10.00Mstep
shell bash copy_files.sh dt_2 10.00Mstep

run ${Nrun3}
run 2500000
PPPM initialization ...
  extracting TIP4P info from pair style
  using 12-bit tables for long-range coulomb (../kspace.cpp:321)
  G vector (1/distance) = 0.310405
  grid = 24 24 24
  stencil order = 5
  estimated absolute RMS force accuracy = 0.0036586
  estimated relative force accuracy = 1.10178e-05
  using double precision FFTs
  3d grid and FFT values/proc = 5415 1152
Per MPI rank memory allocation (min/avg/max) = 14.31 | 14.31 | 14.32 Mbytes
Step Density Temp Press TotEng 
10000000    1.1529113     291.2327    668.83058   -8443.9956 
10100000    1.1529113    287.68995    185.99934   -8407.9776 
10200000    1.1529113     298.1806      369.252   -8338.8634 
10300000    1.1529113    295.47742   -552.43999   -8455.5095 
10400000    1.1529113    289.94471    556.17819   -8435.1597 
10500000    1.1529113    296.57509   -468.26702   -8459.7515 
10600000    1.1529113    292.84841    446.38642   -8363.3536 
10700000    1.1529113     274.2179   -460.52667   -8421.5506 
10800000    1.1529113    295.80891   -613.74695   -8441.1273 
10900000    1.1529113    296.63932    362.56904   -8390.0768 
11000000    1.1529113    306.97562   -725.55214   -8357.1778 
11100000    1.1529113    301.01431    483.26085   -8342.8684 
11200000    1.1529113    300.91787   -286.70939   -8379.0104 
11300000    1.1529113    298.15481    113.05147   -8384.7087 
11400000    1.1529113     296.8303   -661.46346   -8449.2745 
11500000    1.1529113    285.42526    368.33491   -8412.5468 
11600000    1.1529113    310.03316     329.0365   -8369.9404 
11700000    1.1529113    292.43409    293.38093    -8417.992 
11800000    1.1529113    309.09289    -239.8997   -8368.6679 
11900000    1.1529113    305.11895    10.400827    -8380.293 
12000000    1.1529113    301.50419   -188.94093   -8235.4991 
12100000    1.1529113    295.44286    120.28102   -8399.7661 
12200000    1.1529113    305.77335   -897.47015   -8326.3276 
12300000    1.1529113    295.76647     298.1986   -8405.1518 
12400000    1.1529113    297.95447   -258.12882   -8364.0221 
12500000    1.1529113    289.05832    127.36584   -8448.6456 
Loop time of 12844.5 on 12 procs for 2500000 steps with 1572 atoms

Performance: 33.633 ns/day, 0.714 hours/ns, 194.635 timesteps/s
93.2% CPU use with 12 MPI tasks x no OpenMP threads

MPI task timing breakdown:
Section |  min time  |  avg time  |  max time  |%varavg| %total
---------------------------------------------------------------
Pair    | 7102.5     | 7634.8     | 8130.7     | 415.4 | 59.44
Bond    | 33.224     | 33.991     | 34.634     |   7.6 |  0.26
Kspace  | 3071.6     | 3565.5     | 4097.8     | 609.7 | 27.76
Neigh   | 404.98     | 405.37     | 405.92     |   1.3 |  3.16
Comm    | 388.95     | 392.32     | 395.9      |  12.4 |  3.05
Output  | 0.84316    | 0.8589     | 0.86164    |   0.5 |  0.01
Modify  | 758.39     | 760.24     | 762.36     |   3.7 |  5.92
Other   |            | 51.43      |            |       |  0.40

Nlocal:    131 ave 149 max 117 min
Histogram: 1 0 2 3 2 2 0 1 0 1
Nghost:    4190.92 ave 4246 max 4139 min
Histogram: 2 1 2 1 0 1 1 2 0 2
Neighs:    47688.7 ave 51135 max 39642 min
Histogram: 1 0 0 0 2 0 1 4 2 2

Total # of neighbors = 572264
Ave neighs/atom = 364.036
Ave special neighs/atom = 1.9084
Neighbor list builds = 198618
Dangerous builds = 0
shell bash copy_files.sh dt_${tstep} 12.50Mstep
shell bash copy_files.sh dt_2 12.50Mstep

run ${Nrun3}
run 2500000
PPPM initialization ...
  extracting TIP4P info from pair style
  using 12-bit tables for long-range coulomb (../kspace.cpp:321)
  G vector (1/distance) = 0.310405
  grid = 24 24 24
  stencil order = 5
  estimated absolute RMS force accuracy = 0.0036586
  estimated relative force accuracy = 1.10178e-05
  using double precision FFTs
  3d grid and FFT values/proc = 5415 1152
Per MPI rank memory allocation (min/avg/max) = 14.31 | 14.31 | 14.32 Mbytes
Step Density Temp Press TotEng 
12500000    1.1529113    289.05832    127.93665   -8448.6456 
12600000    1.1529113    306.45611   -508.29933   -8441.8223 
12700000    1.1529113    299.71428    109.17539   -8396.7044 
12800000    1.1529113    288.29718   -74.202671   -8460.2607 
12900000    1.1529113    295.92157    240.17991   -8403.3127 
13000000    1.1529113    305.62359     -446.337   -8353.3816 
13100000    1.1529113    296.50729   -102.71697   -8414.4263 
13200000    1.1529113    295.40975   -323.79636   -8363.5147 
13300000    1.1529113    306.69391     667.7955   -8362.8494 
13400000    1.1529113    297.42996    722.87474   -8389.4677 
13500000    1.1529113    295.52973    222.56914   -8412.8571 
13600000    1.1529113    306.41879     104.8887   -8346.8831 
13700000    1.1529113    293.65584   -236.67877   -8458.8033 
13800000    1.1529113    305.24747   -213.79552   -8371.6082 
13900000    1.1529113     289.3611   -234.72752   -8405.6228 
14000000    1.1529113    296.46774    68.857772   -8407.0952 
14100000    1.1529113    309.61264    315.46177   -8344.1556 
14200000    1.1529113    316.73101    657.00055   -8398.3275 
14300000    1.1529113    294.84795   -368.24415   -8367.3386 
14400000    1.1529113     300.8216    179.94261   -8355.7429 
14500000    1.1529113    292.45427     879.6866   -8395.5748 
14600000    1.1529113     293.1491   -286.22034   -8389.6816 
14700000    1.1529113    302.77296    639.29489   -8386.3491 
14800000    1.1529113    291.79282     193.0437   -8378.0838 
14900000    1.1529113    300.22128   -86.330857   -8383.5888 
15000000    1.1529113     304.1054    865.76441    -8334.113 
Loop time of 12825 on 12 procs for 2500000 steps with 1572 atoms

Performance: 33.684 ns/day, 0.712 hours/ns, 194.932 timesteps/s
93.3% CPU use with 12 MPI tasks x no OpenMP threads

MPI task timing breakdown:
Section |  min time  |  avg time  |  max time  |%varavg| %total
---------------------------------------------------------------
Pair    | 7181.4     | 7635.9     | 8066.7     | 380.0 | 59.54
Bond    | 33.218     | 34.102     | 34.73      |   8.0 |  0.27
Kspace  | 3118.5     | 3547.4     | 4005.2     | 559.2 | 27.66
Neigh   | 404.32     | 404.71     | 405.22     |   1.3 |  3.16
Comm    | 388.51     | 391.95     | 395.66     |  11.9 |  3.06
Output  | 0.84288    | 0.85827    | 0.86091    |   0.5 |  0.01
Modify  | 756.92     | 758.58     | 760.83     |   3.7 |  5.91
Other   |            | 51.5       |            |       |  0.40

Nlocal:    131 ave 142 max 122 min
Histogram: 2 0 2 2 1 1 0 2 0 2
Nghost:    4211.83 ave 4250 max 4177 min
Histogram: 1 1 2 2 0 1 3 0 0 2
Neighs:    47719.2 ave 52724 max 42997 min
Histogram: 2 0 1 2 1 2 2 0 1 1

Total # of neighbors = 572631
Ave neighs/atom = 364.269
Ave special neighs/atom = 1.9084
Neighbor list builds = 198435
Dangerous builds = 0
shell bash copy_files.sh dt_${tstep} 15.00Mstep
shell bash copy_files.sh dt_2 15.00Mstep

run ${Nrun3}
run 2500000
PPPM initialization ...
  extracting TIP4P info from pair style
  using 12-bit tables for long-range coulomb (../kspace.cpp:321)
  G vector (1/distance) = 0.310405
  grid = 24 24 24
  stencil order = 5
  estimated absolute RMS force accuracy = 0.0036586
  estimated relative force accuracy = 1.10178e-05
  using double precision FFTs
  3d grid and FFT values/proc = 5415 1152
Per MPI rank memory allocation (min/avg/max) = 14.31 | 14.31 | 14.32 Mbytes
Step Density Temp Press TotEng 
15000000    1.1529113     304.1054    865.18994    -8334.113 
15100000    1.1529113    299.54229    33.680196   -8377.9437 
15200000    1.1529113    297.56794    197.02788   -8432.0935 
15300000    1.1529113    303.71922     557.3332   -8375.9455 
15400000    1.1529113    312.14468    145.64147   -8351.1052 
15500000    1.1529113    285.96115   -1115.9431   -8452.7826 
15600000    1.1529113    301.00867    385.08332   -8390.1842 
15700000    1.1529113    293.20687   -1650.5945   -8389.9105 
15800000    1.1529113    299.43741    565.79825   -8381.2296 
15900000    1.1529113     294.9581   -323.64617   -8492.8309 
16000000    1.1529113    307.85005    297.52138   -8360.5123 
16100000    1.1529113    297.68447   -114.43654   -8407.7888 
16200000    1.1529113    314.08096     -175.267   -8349.0088 
16300000    1.1529113    312.32263    620.35735   -8260.9889 
16400000    1.1529113    297.93198     812.6437   -8379.4585 
16500000    1.1529113    302.92338    668.57647   -8387.4864 
16600000    1.1529113    307.25049     681.9949   -8372.4052 
16700000    1.1529113    294.14211   -748.09737   -8406.8351 
16800000    1.1529113    292.63799    246.43563   -8396.4604 
16900000    1.1529113    300.35361    -176.5233   -8382.3411 
17000000    1.1529113    305.63081    294.64484   -8371.3855 
17100000    1.1529113     294.1505   -194.26813   -8412.6964 
17200000    1.1529113    302.45111    1008.2378   -8445.1044 
17300000    1.1529113    301.01373    82.249566   -8403.6374 
17400000    1.1529113    302.14927     170.2947   -8392.6843 
17500000    1.1529113    298.19374   -473.44447   -8416.9098 
Loop time of 12837.4 on 12 procs for 2500000 steps with 1572 atoms

Performance: 33.652 ns/day, 0.713 hours/ns, 194.744 timesteps/s
93.2% CPU use with 12 MPI tasks x no OpenMP threads

MPI task timing breakdown:
Section |  min time  |  avg time  |  max time  |%varavg| %total
---------------------------------------------------------------
Pair    | 7101.9     | 7630.1     | 8127.8     | 420.6 | 59.44
Bond    | 33.246     | 33.989     | 34.584     |   7.8 |  0.26
Kspace  | 3065.8     | 3564.5     | 4092.3     | 617.0 | 27.77
Neigh   | 405.41     | 405.74     | 406.25     |   1.3 |  3.16
Comm    | 388.61     | 392.45     | 396.07     |  13.3 |  3.06
Output  | 0.84112    | 0.8541     | 0.85639    |   0.4 |  0.01
Modify  | 756.77     | 758.33     | 760.48     |   3.6 |  5.91
Other   |            | 51.43      |            |       |  0.40

Nlocal:    131 ave 144 max 123 min
Histogram: 3 1 1 3 0 2 0 0 1 1
Nghost:    4231 ave 4271 max 4176 min
Histogram: 1 0 0 3 2 0 1 1 2 2
Neighs:    47710.7 ave 52429 max 42746 min
Histogram: 3 1 1 1 0 0 0 1 3 2

Total # of neighbors = 572528
Ave neighs/atom = 364.204
Ave special neighs/atom = 1.9084
Neighbor list builds = 198654
Dangerous builds = 0
shell bash copy_files.sh dt_${tstep} 17.50Mstep
shell bash copy_files.sh dt_2 17.50Mstep

run ${Nrun3}
run 2500000
PPPM initialization ...
  extracting TIP4P info from pair style
  using 12-bit tables for long-range coulomb (../kspace.cpp:321)
  G vector (1/distance) = 0.310405
  grid = 24 24 24
  stencil order = 5
  estimated absolute RMS force accuracy = 0.0036586
  estimated relative force accuracy = 1.10178e-05
  using double precision FFTs
  3d grid and FFT values/proc = 5415 1152
Per MPI rank memory allocation (min/avg/max) = 14.31 | 14.32 | 14.32 Mbytes
Step Density Temp Press TotEng 
17500000    1.1529113    298.19374   -473.07906   -8416.9098 
17600000    1.1529113    285.23333    295.48956   -8396.5747 
17700000    1.1529113    301.21699    30.210401   -8415.2596 
17800000    1.1529113    294.93589    336.51868    -8386.799 
17900000    1.1529113    296.73272   -843.39506   -8412.2278 
18000000    1.1529113    288.51198     124.0724   -8433.1817 
18100000    1.1529113    307.56631   -52.835551   -8336.3395 
18200000    1.1529113    280.83605    1139.0849   -8447.7332 
18300000    1.1529113     306.2443    738.48389   -8398.6053 
18400000    1.1529113     297.2124    9.7289403   -8378.3302 
18500000    1.1529113    305.17164    162.38849   -8361.4577 
18600000    1.1529113    296.15868     -453.519   -8383.8073 
18700000    1.1529113    283.79961   -542.96001   -8438.2972 
18800000    1.1529113    307.45078   -620.51556    -8371.874 
18900000    1.1529113     289.0008   -55.754254   -8376.0001 
19000000    1.1529113    288.30248   -489.24171   -8408.9478 
19100000    1.1529113    307.84217   -614.87663   -8368.1694 
19200000    1.1529113    305.29664    223.96835   -8402.8757 
19300000    1.1529113    297.71885   -428.99677   -8371.5245 
19400000    1.1529113    299.38005    655.73135   -8368.9291 
19500000    1.1529113    307.50079    14.692324    -8366.676 
19600000    1.1529113    292.18748   -290.18593   -8439.0479 
19700000    1.1529113    290.37981   -615.58509   -8466.1488 
19800000    1.1529113    293.68207     -549.728   -8466.9253 
19900000    1.1529113    301.75125    553.33931   -8388.8491 
20000000    1.1529113    291.53912    607.42291   -8386.5864 
Loop time of 12848.5 on 12 procs for 2500000 steps with 1572 atoms

Performance: 33.623 ns/day, 0.714 hours/ns, 194.576 timesteps/s
93.2% CPU use with 12 MPI tasks x no OpenMP threads

MPI task timing breakdown:
Section |  min time  |  avg time  |  max time  |%varavg| %total
---------------------------------------------------------------
Pair    | 6939       | 7638.5     | 8130.9     | 420.2 | 59.45
Bond    | 33.244     | 34.014     | 34.686     |   7.2 |  0.26
Kspace  | 3075.9     | 3569.5     | 4269       | 616.0 | 27.78
Neigh   | 405.09     | 405.42     | 405.89     |   1.2 |  3.16
Comm    | 388.58     | 391.81     | 395.16     |  12.1 |  3.05
Output  | 0.84093    | 0.84249    | 0.84526    |   0.1 |  0.01
Modify  | 756.37     | 758.13     | 759.2      |   3.1 |  5.90
Other   |            | 50.28      |            |       |  0.39

Nlocal:    131 ave 142 max 122 min
Histogram: 1 1 4 1 1 0 0 0 2 2
Nghost:    4209.33 ave 4330 max 4099 min
Histogram: 2 0 1 2 2 1 1 1 1 1
Neighs:    47754.2 ave 52758 max 42952 min
Histogram: 1 0 1 3 3 0 1 1 0 2

Total # of neighbors = 573051
Ave neighs/atom = 364.536
Ave special neighs/atom = 1.9084
Neighbor list builds = 198657
Dangerous builds = 0
shell bash copy_files.sh dt_${tstep} 20.00Mstep
shell bash copy_files.sh dt_2 20.00Mstep

run ${Nrun4}
run 5000000
PPPM initialization ...
  extracting TIP4P info from pair style
  using 12-bit tables for long-range coulomb (../kspace.cpp:321)
  G vector (1/distance) = 0.310405
  grid = 24 24 24
  stencil order = 5
  estimated absolute RMS force accuracy = 0.0036586
  estimated relative force accuracy = 1.10178e-05
  using double precision FFTs
  3d grid and FFT values/proc = 5415 1152
Per MPI rank memory allocation (min/avg/max) = 14.31 | 14.32 | 14.32 Mbytes
Step Density Temp Press TotEng 
20000000    1.1529113    291.53912    607.55671   -8386.5864 
20100000    1.1529113    302.18767    8.5171863   -8371.8222 
20200000    1.1529113    305.21231   -350.23024   -8324.5234 
20300000    1.1529113    288.45668    564.99573   -8461.8203 
20400000    1.1529113    300.75045    350.52724   -8417.8057 
20500000    1.1529113    303.57631    -859.2979   -8426.4051 
20600000    1.1529113    296.38126   -250.90424   -8409.7796 
20700000    1.1529113    307.22619   -65.944021   -8402.2341 
20800000    1.1529113    300.29502    183.39548   -8408.5975 
20900000    1.1529113    291.38359    727.58645   -8369.3263 
21000000    1.1529113    306.06369    164.51076   -8387.5227 
21100000    1.1529113    288.69188    558.68476   -8445.9423 
21200000    1.1529113    294.64132   -826.42609   -8412.3073 
21300000    1.1529113     291.0006    53.316404    -8507.449 
21400000    1.1529113    304.57942   -1092.6906   -8327.6697 
21500000    1.1529113    283.79202   -787.35814   -8434.4096 
21600000    1.1529113    305.67382   -859.88771   -8377.4296 
21700000    1.1529113    303.13606    713.85131   -8429.9546 
21800000    1.1529113    288.87551    445.79386   -8481.4413 
21900000    1.1529113    305.10191   -18.678369    -8337.236 
22000000    1.1529113    312.06087     835.3431     -8326.63 
22100000    1.1529113    289.21174    42.493015   -8405.8623 
22200000    1.1529113    295.14185    35.038255   -8390.5739 
22300000    1.1529113    296.43923   -1083.5979   -8475.9936 
22400000    1.1529113    305.54509    -304.6611   -8383.1274 
22500000    1.1529113    303.92113   -174.51459    -8395.393 
22600000    1.1529113     308.3052    89.136173   -8356.6237 
22700000    1.1529113     299.2045    340.88252   -8398.3176 
22800000    1.1529113    294.10088   -545.89947   -8412.8353 
22900000    1.1529113    298.61164    486.58214   -8419.5627 
23000000    1.1529113    307.35883    5.3520644   -8383.6294 
23100000    1.1529113    290.02047    1156.5144   -8416.9677 
23200000    1.1529113    299.30665    -164.8576   -8360.8442 
23300000    1.1529113     310.8419    423.92108   -8354.3009 
23400000    1.1529113    304.33875    444.99787   -8351.7562 
23500000    1.1529113     298.7198    6.4951405   -8322.7138 
23600000    1.1529113    309.41652    357.07598   -8331.4555 
23700000    1.1529113    299.20518    1626.1341   -8427.3511 
23800000    1.1529113    290.97598   -160.23893   -8442.2186 
23900000    1.1529113    295.11948    52.402738   -8393.4629 
24000000    1.1529113    292.84014   -101.69151   -8430.4521 
24100000    1.1529113    301.09282    67.655655   -8416.0695 
24200000    1.1529113    302.46044    228.40623   -8425.3502 
24300000    1.1529113    298.96376    106.74745   -8426.6908 
24400000    1.1529113    288.28086   -278.37001   -8417.4792 
24500000    1.1529113    298.89644    301.91437   -8359.7318 
24600000    1.1529113    290.53999    276.97192   -8423.2367 
24700000    1.1529113    300.79008   -536.68435   -8449.9067 
24800000    1.1529113    309.54582   -1080.0312   -8339.6743 
24900000    1.1529113     298.7189   -127.91972   -8410.0071 
25000000    1.1529113    310.71657    231.99307   -8367.8224 
Loop time of 25635.7 on 12 procs for 5000000 steps with 1572 atoms

Performance: 33.703 ns/day, 0.712 hours/ns, 195.041 timesteps/s
93.2% CPU use with 12 MPI tasks x no OpenMP threads

MPI task timing breakdown:
Section |  min time  |  avg time  |  max time  |%varavg| %total
---------------------------------------------------------------
Pair    | 14041      | 15231      | 16228      | 596.7 | 59.41
Bond    | 66.444     | 67.97      | 69.326     |  10.9 |  0.27
Kspace  | 6125.8     | 7118.5     | 8310       | 875.3 | 27.77
Neigh   | 809.53     | 810.24     | 811.29     |   1.8 |  3.16
Comm    | 778.34     | 784.43     | 790.95     |  16.2 |  3.06
Output  | 1.6932     | 1.7209     | 1.7246     |   0.6 |  0.01
Modify  | 1514.9     | 1518.6     | 1523       |   5.2 |  5.92
Other   |            | 102.9      |            |       |  0.40

Nlocal:    131 ave 148 max 121 min
Histogram: 2 0 4 0 3 2 0 0 0 1
Nghost:    4197.42 ave 4274 max 4109 min
Histogram: 2 1 0 1 1 2 0 2 0 3
Neighs:    47673.4 ave 53524 max 41513 min
Histogram: 1 0 3 1 1 1 3 0 0 2

Total # of neighbors = 572081
Ave neighs/atom = 363.919
Ave special neighs/atom = 1.9084
Neighbor list builds = 396941
Dangerous builds = 0
shell bash copy_files.sh dt_${tstep} 25.00Mstep
shell bash copy_files.sh dt_2 25.00Mstep

run ${Nrun4}
run 5000000
PPPM initialization ...
  extracting TIP4P info from pair style
  using 12-bit tables for long-range coulomb (../kspace.cpp:321)
  G vector (1/distance) = 0.310405
  grid = 24 24 24
  stencil order = 5
  estimated absolute RMS force accuracy = 0.0036586
  estimated relative force accuracy = 1.10178e-05
  using double precision FFTs
  3d grid and FFT values/proc = 5415 1152
Per MPI rank memory allocation (min/avg/max) = 14.31 | 14.32 | 14.32 Mbytes
Step Density Temp Press TotEng 
25000000    1.1529113    310.71657     232.5447   -8367.8224 
25100000    1.1529113    296.67838   -1057.7217   -8397.7444 
25200000    1.1529113    295.68893   -154.71789   -8432.7401 
25300000    1.1529113    283.84627    368.86883   -8448.4724 
25400000    1.1529113    294.99294   -156.37177   -8393.1096 
25500000    1.1529113    308.75277    125.62642     -8325.19 
25600000    1.1529113    300.00817    809.11707   -8346.8884 
25700000    1.1529113    299.50531   -265.97995   -8382.7613 
25800000    1.1529113    294.11697    249.18782   -8468.0437 
25900000    1.1529113    286.76354   -226.95161   -8430.5079 
26000000    1.1529113    296.21356   -121.03992    -8431.203 
26100000    1.1529113    297.57551    481.80708   -8342.5188 
26200000    1.1529113     301.3357   -8.4542488   -8441.4728 
26300000    1.1529113    292.99064    1137.4951    -8392.125 
26400000    1.1529113    297.16647   -405.70809   -8447.6922 
26500000    1.1529113    319.96391    168.63335   -8341.5084 
26600000    1.1529113    297.14239   -454.77005   -8399.2667 
26700000    1.1529113    300.64556   -1177.4524   -8444.9299 
26800000    1.1529113    284.91147   -242.16158   -8457.9772 
26900000    1.1529113    295.30071    1117.1533   -8402.7488 
27000000    1.1529113    299.00641   -145.02351    -8383.636 
27100000    1.1529113    296.73503    76.057492   -8343.2669 
27200000    1.1529113    292.07064    514.76624   -8465.0584 
27300000    1.1529113    305.30054    -279.0154     -8385.91 
27400000    1.1529113    298.70202    254.26976   -8344.6366 
27500000    1.1529113    276.36543    144.06956    -8454.962 
27600000    1.1529113    299.77814     -187.454   -8395.3827 
27700000    1.1529113    295.51955     34.48864   -8415.5775 
27800000    1.1529113    295.17878    588.14627   -8383.2641 
27900000    1.1529113    311.47655    590.03885   -8284.0818 
28000000    1.1529113    306.96861    341.54274   -8317.1123 
28100000    1.1529113    289.37836     289.4723   -8426.8957 
28200000    1.1529113     294.5057   -559.35231   -8416.0827 
28300000    1.1529113    291.45939   -647.73155   -8428.9998 
28400000    1.1529113    291.01095   -794.26901   -8380.0587 
28500000    1.1529113    285.05808   -311.71592   -8417.9763 
28600000    1.1529113    295.64385    285.16232   -8388.7056 
28700000    1.1529113    313.23367    103.57059   -8319.2437 
28800000    1.1529113    304.89161    916.08036   -8365.9277 
28900000    1.1529113    289.45484    -386.6988   -8481.3224 
29000000    1.1529113     300.5612   -946.89595   -8325.2952 
29100000    1.1529113    288.17325   -336.45824   -8415.9321 
29200000    1.1529113    292.23724    165.85041   -8382.8034 
29300000    1.1529113    294.03172   -343.99974   -8392.3068 
29400000    1.1529113    300.84667    380.86846    -8293.914 
29500000    1.1529113    306.64372   -351.69037   -8357.8512 
29600000    1.1529113    297.13488   -336.72534   -8393.5029 
29700000    1.1529113    305.66601    583.17652   -8368.4692 
29800000    1.1529113    298.74981   -151.90385   -8394.5307 
29900000    1.1529113    304.40539    282.55591   -8378.9141 
30000000    1.1529113    293.99336    -174.0225   -8413.3573 
Loop time of 25719.4 on 12 procs for 5000000 steps with 1572 atoms

Performance: 33.593 ns/day, 0.714 hours/ns, 194.406 timesteps/s
93.2% CPU use with 12 MPI tasks x no OpenMP threads

MPI task timing breakdown:
Section |  min time  |  avg time  |  max time  |%varavg| %total
---------------------------------------------------------------
Pair    | 14095      | 15263      | 16253      | 615.4 | 59.34
Bond    | 66.285     | 67.934     | 69.155     |  12.3 |  0.26
Kspace  | 6181.8     | 7170.6     | 8338.7     | 900.6 | 27.88
Neigh   | 810.11     | 810.9      | 812.06     |   2.0 |  3.15
Comm    | 777.29     | 784.14     | 790.91     |  17.3 |  3.05
Output  | 1.6917     | 1.7212     | 1.7258     |   0.7 |  0.01
Modify  | 1515.1     | 1518.5     | 1523.1     |   5.3 |  5.90
Other   |            | 102.7      |            |       |  0.40

Nlocal:    131 ave 135 max 123 min
Histogram: 1 0 1 0 1 3 0 0 1 5
Nghost:    4223.83 ave 4264 max 4180 min
Histogram: 1 1 3 1 0 0 1 2 1 2
Neighs:    47686.3 ave 50865 max 42827 min
Histogram: 1 1 0 3 0 0 1 2 1 3

Total # of neighbors = 572236
Ave neighs/atom = 364.018
Ave special neighs/atom = 1.9084
Neighbor list builds = 397151
Dangerous builds = 0
shell bash copy_files.sh dt_${tstep} 30.00Mstep
shell bash copy_files.sh dt_2 30.00Mstep

run ${Nrun4}
run 5000000
PPPM initialization ...
  extracting TIP4P info from pair style
  using 12-bit tables for long-range coulomb (../kspace.cpp:321)
  G vector (1/distance) = 0.310405
  grid = 24 24 24
  stencil order = 5
  estimated absolute RMS force accuracy = 0.0036586
  estimated relative force accuracy = 1.10178e-05
  using double precision FFTs
  3d grid and FFT values/proc = 5415 1152
Per MPI rank memory allocation (min/avg/max) = 14.31 | 14.32 | 14.32 Mbytes
Step Density Temp Press TotEng 
30000000    1.1529113    293.99336   -174.14782   -8413.3573 
30100000    1.1529113    303.04334    720.91202   -8445.5608 
30200000    1.1529113     299.5252     1354.641   -8409.4068 
30300000    1.1529113    295.09236    82.661963   -8368.1865 
30400000    1.1529113    285.92422   -702.06268   -8386.9938 
30500000    1.1529113    289.92391     186.9278   -8395.1514 
30600000    1.1529113    307.43187    246.23757   -8357.7432 
30700000    1.1529113     306.6524    114.06525    -8374.758 
30800000    1.1529113    310.36503    873.81678   -8371.2724 
30900000    1.1529113    292.04545    153.52047   -8401.3951 
31000000    1.1529113    291.38248   -959.97256   -8383.8086 
31100000    1.1529113    305.49078    905.99901   -8423.5363 
31200000    1.1529113    312.65245   -179.34142   -8310.3243 
31300000    1.1529113    301.26703    752.01641    -8396.056 
31400000    1.1529113    307.35775   -396.96153   -8349.6777 
31500000    1.1529113    303.25418    549.90876   -8392.7418 
31600000    1.1529113    283.10164    101.76794   -8357.6028 
31700000    1.1529113     293.9712   -362.45583   -8417.7532 
31800000    1.1529113    285.10219    756.84655   -8465.6416 
31900000    1.1529113    302.38507    165.39611   -8312.2481 
32000000    1.1529113    305.28116    668.46338   -8350.5187 
32100000    1.1529113    298.21786    279.08411   -8355.3286 
32200000    1.1529113    300.47221    916.38091   -8379.8354 
32300000    1.1529113    292.95556   -597.31454   -8404.4396 
32400000    1.1529113    294.20093   -152.71179   -8420.1545 
32500000    1.1529113    290.66968    210.64012   -8446.6636 
32600000    1.1529113    301.87515   -820.55163   -8426.1426 
32700000    1.1529113    304.78211     -545.928    -8357.947 
32800000    1.1529113    294.18791    245.55444   -8411.4107 
32900000    1.1529113    288.89939    1110.0477   -8378.1114 
33000000    1.1529113    290.08483   -653.56255   -8458.6705 
33100000    1.1529113    282.55656    187.80611   -8415.9472 
33200000    1.1529113    283.24133   -708.00564   -8424.1352 
33300000    1.1529113    300.79892    382.24861   -8387.2171 
33400000    1.1529113     313.0715    13.125067   -8360.5541 
33500000    1.1529113    300.58682   -310.02972   -8371.1339 
33600000    1.1529113    304.47288   -233.23025    -8345.849 
33700000    1.1529113    295.61856   -312.46582   -8477.8388 
33800000    1.1529113    294.05436   -222.70085   -8497.6729 
33900000    1.1529113    302.40718   -337.94202   -8394.8132 
34000000    1.1529113    300.19138   -499.92593   -8400.8978 
34100000    1.1529113    317.12535   -470.80115   -8383.4044 
34200000    1.1529113    293.03966   -426.00741   -8445.0782 
34300000    1.1529113    303.69543   -154.32876   -8377.0401 
34400000    1.1529113    299.71646   -627.39356   -8371.3196 
34500000    1.1529113    294.33824   -1404.7942   -8408.8773 
34600000    1.1529113      298.481    1779.3247   -8425.1962 
34700000    1.1529113    298.60241   -473.89282   -8392.4011 
34800000    1.1529113    292.82244   -612.48509   -8470.0175 
34900000    1.1529113    292.06579   -784.47713   -8423.8924 
35000000    1.1529113    286.13987   -389.54758   -8400.0103 
Loop time of 25740.5 on 12 procs for 5000000 steps with 1572 atoms

Performance: 33.566 ns/day, 0.715 hours/ns, 194.246 timesteps/s
93.1% CPU use with 12 MPI tasks x no OpenMP threads

MPI task timing breakdown:
Section |  min time  |  avg time  |  max time  |%varavg| %total
---------------------------------------------------------------
Pair    | 14015      | 15276      | 16269      | 655.5 | 59.35
Bond    | 65.963     | 67.603     | 68.75      |  11.5 |  0.26
Kspace  | 6183.6     | 7179.1     | 8439       | 958.3 | 27.89
Neigh   | 810.25     | 811.06     | 812.14     |   1.9 |  3.15
Comm    | 777.51     | 784.45     | 791.12     |  17.2 |  3.05
Output  | 1.6831     | 1.7098     | 1.7145     |   0.6 |  0.01
Modify  | 1514.3     | 1517.6     | 1522.1     |   5.0 |  5.90
Other   |            | 102.7      |            |       |  0.40

Nlocal:    131 ave 143 max 120 min
Histogram: 1 3 1 1 1 0 1 1 2 1
Nghost:    4215.17 ave 4279 max 4140 min
Histogram: 1 0 3 0 1 2 0 2 1 2
Neighs:    47693.2 ave 54396 max 41773 min
Histogram: 1 2 1 0 2 3 0 1 0 2

Total # of neighbors = 572319
Ave neighs/atom = 364.071
Ave special neighs/atom = 1.9084
Neighbor list builds = 397156
Dangerous builds = 0
shell bash copy_files.sh dt_${tstep} 35.00Mstep
shell bash copy_files.sh dt_2 35.00Mstep

run ${Nrun4}
run 5000000
PPPM initialization ...
  extracting TIP4P info from pair style
  using 12-bit tables for long-range coulomb (../kspace.cpp:321)
  G vector (1/distance) = 0.310405
  grid = 24 24 24
  stencil order = 5
  estimated absolute RMS force accuracy = 0.0036586
  estimated relative force accuracy = 1.10178e-05
  using double precision FFTs
  3d grid and FFT values/proc = 5415 1152
Per MPI rank memory allocation (min/avg/max) = 14.31 | 14.32 | 14.32 Mbytes
Step Density Temp Press TotEng 
35000000    1.1529113    286.13987   -389.90916   -8400.0103 
35100000    1.1529113    285.34732    618.46128   -8468.1373 
35200000    1.1529113    298.55227    357.18254   -8410.6601 
35300000    1.1529113    288.99266    -537.7199   -8397.5164 
35400000    1.1529113    312.84635   -764.48535   -8304.0591 
35500000    1.1529113    278.84674   -42.496127   -8518.5585 
35600000    1.1529113     289.6253   -187.47628   -8499.6117 
35700000    1.1529113    296.66706     1228.741   -8428.6792 
35800000    1.1529113    304.47532    73.603675   -8460.2503 
35900000    1.1529113    295.39422   -493.57102   -8442.9901 
36000000    1.1529113     303.3657   -39.668612   -8396.1439 
36100000    1.1529113    300.63336   -640.64633   -8413.3516 
36200000    1.1529113    304.07343    349.58653   -8360.5156 
36300000    1.1529113    298.51387    141.15655   -8484.6142 
36400000    1.1529113    303.88441    490.10266   -8326.6816 
36500000    1.1529113    300.35099    332.23103   -8371.1313 
36600000    1.1529113    304.23425    198.38358   -8406.8208 
36700000    1.1529113    302.33056    -501.3974    -8416.929 
36800000    1.1529113    307.51063    -159.0039   -8407.0283 
36900000    1.1529113    297.76089    403.33139   -8369.4247 
37000000    1.1529113    286.44559   -256.12797   -8430.3061 
37100000    1.1529113    299.10385    613.23705   -8452.4575 
37200000    1.1529113    304.56204   -145.14641   -8398.3562 
37300000    1.1529113    312.15648    570.11819   -8299.8079 
37400000    1.1529113    294.94514    100.65038   -8383.7948 
37500000    1.1529113    302.23676    580.40577   -8391.5085 
37600000    1.1529113    290.90273   -215.06894   -8385.7063 
37700000    1.1529113    303.04277    -148.3216   -8430.8715 
37800000    1.1529113     295.4901    442.69307   -8453.2991 
37900000    1.1529113    279.93272    246.53439   -8449.0498 
38000000    1.1529113    303.22082   -153.96536   -8332.0158 
38100000    1.1529113    297.10832   -157.40714   -8396.4159 
38200000    1.1529113    300.48459    187.82779    -8332.727 
38300000    1.1529113     302.2189     -6.35349   -8346.4351 
38400000    1.1529113    295.27511    613.01916   -8404.2296 
38500000    1.1529113    279.61348    242.64732   -8422.5791 
38600000    1.1529113    297.33608    1087.6239   -8367.7746 
38700000    1.1529113    305.04695   -931.57731   -8363.7263 
38800000    1.1529113    309.15882    6.9905355   -8376.3075 
38900000    1.1529113    312.78251   -107.15522   -8340.2578 
39000000    1.1529113    305.00334   -311.35754    -8384.386 
39100000    1.1529113    286.99381   -246.11251   -8408.8478 
39200000    1.1529113    298.25459   -404.43075   -8430.5369 
39300000    1.1529113    292.59019   -589.52654   -8386.5602 
39400000    1.1529113    306.11644    667.17002   -8335.1332 
39500000    1.1529113    295.81328   -95.102129   -8411.6556 
39600000    1.1529113    280.02603    57.640507   -8489.3378 
39700000    1.1529113    303.11426    539.83284   -8385.1002 
39800000    1.1529113    292.95507    71.413588   -8314.2767 
39900000    1.1529113    294.18951    256.86637   -8450.3262 
40000000    1.1529113    291.88664   -106.17763   -8360.3476 
Loop time of 25696.5 on 12 procs for 5000000 steps with 1572 atoms

Performance: 33.623 ns/day, 0.714 hours/ns, 194.579 timesteps/s
93.3% CPU use with 12 MPI tasks x no OpenMP threads

MPI task timing breakdown:
Section |  min time  |  avg time  |  max time  |%varavg| %total
---------------------------------------------------------------
Pair    | 14111      | 15281      | 16156      | 566.0 | 59.47
Bond    | 66.608     | 68.245     | 69.535     |  11.3 |  0.27
Kspace  | 6258.5     | 7129       | 8299       | 830.8 | 27.74
Neigh   | 810.49     | 811.15     | 812.14     |   1.7 |  3.16
Comm    | 777.23     | 784.36     | 792.01     |  17.6 |  3.05
Output  | 1.6888     | 1.7172     | 1.7219     |   0.7 |  0.01
Modify  | 1514.7     | 1517.9     | 1522.1     |   5.1 |  5.91
Other   |            | 102.9      |            |       |  0.40

Nlocal:    131 ave 144 max 120 min
Histogram: 3 0 0 2 0 3 2 1 0 1
Nghost:    4174.33 ave 4239 max 4071 min
Histogram: 1 0 1 1 2 0 2 1 1 3
Neighs:    47719.6 ave 52303 max 41614 min
Histogram: 1 1 0 2 2 0 0 2 1 3

Total # of neighbors = 572635
Ave neighs/atom = 364.272
Ave special neighs/atom = 1.9084
Neighbor list builds = 397264
Dangerous builds = 0
shell bash copy_files.sh dt_${tstep} 40.00Mstep
shell bash copy_files.sh dt_2 40.00Mstep

run ${Nrun4}
run 5000000
PPPM initialization ...
  extracting TIP4P info from pair style
  using 12-bit tables for long-range coulomb (../kspace.cpp:321)
  G vector (1/distance) = 0.310405
  grid = 24 24 24
  stencil order = 5
  estimated absolute RMS force accuracy = 0.0036586
  estimated relative force accuracy = 1.10178e-05
  using double precision FFTs
  3d grid and FFT values/proc = 5415 1152
Per MPI rank memory allocation (min/avg/max) = 14.31 | 14.32 | 14.32 Mbytes
Step Density Temp Press TotEng 
40000000    1.1529113    291.88664   -107.37812   -8360.3476 
40100000    1.1529113    288.38386   -17.487281   -8462.2829 
40200000    1.1529113    320.45597    52.198781   -8262.8953 
40300000    1.1529113    290.28591   -7.9565247   -8435.5766 
40400000    1.1529113    284.00958    68.166471   -8436.7408 
40500000    1.1529113    299.44063   -69.762668   -8392.3432 
40600000    1.1529113    287.62524    951.55441   -8372.7546 
40700000    1.1529113     304.4803   -39.023155   -8353.7864 
40800000    1.1529113    290.55275   -50.887872   -8434.2444 
40900000    1.1529113    307.47948    33.471731   -8372.5611 
41000000    1.1529113    298.58653    764.79879   -8436.6287 
41100000    1.1529113    300.33006    943.99198   -8481.3352 
41200000    1.1529113     292.8502    359.46423   -8451.2554 
41300000    1.1529113    287.02829    -623.2154   -8511.1866 
41400000    1.1529113    292.31471    203.50423   -8403.7519 
41500000    1.1529113    304.17254   -547.59177   -8426.9633 
41600000    1.1529113    296.80203    82.406743    -8321.304 
41700000    1.1529113    302.91694     65.47775   -8427.5622 
41800000    1.1529113    303.55641   -209.99691   -8423.1648 
41900000    1.1529113    301.76248    477.10853   -8383.9692 
42000000    1.1529113    306.15562    306.94979   -8384.6449 
42100000    1.1529113    291.72517   -543.13325   -8404.8766 
42200000    1.1529113    300.38027   -1806.5942   -8383.2557 
42300000    1.1529113    288.91276   -836.47073   -8441.5915 
42400000    1.1529113    296.45934    543.95929   -8365.3157 
42500000    1.1529113    304.54223   -387.80244   -8370.8469 
42600000    1.1529113    301.34571    58.897168    -8441.899 
42700000    1.1529113     294.0173   -132.59391   -8427.3541 
42800000    1.1529113    295.57736   0.98312365   -8396.4541 
42900000    1.1529113    293.27652    643.67194   -8438.7733 
43000000    1.1529113    287.34479     -476.968   -8430.3363 
43100000    1.1529113    295.10099    400.32683    -8426.431 
43200000    1.1529113    291.96076   -96.678217   -8430.2431 
43300000    1.1529113    296.95129   -139.60256   -8355.4921 
43400000    1.1529113    297.64851   -561.97313   -8356.7223 
43500000    1.1529113    295.76036    328.87856   -8405.4541 
43600000    1.1529113    297.42646   -516.87054   -8434.8622 
43700000    1.1529113    299.52095   -841.76129   -8299.1433 
43800000    1.1529113    295.87599    790.01665   -8378.6677 
43900000    1.1529113    301.09398    752.21707   -8392.1907 
44000000    1.1529113    286.58898    146.32636   -8419.0741 
44100000    1.1529113    297.37419    470.44525    -8420.224 
44200000    1.1529113     290.1522   -873.61099   -8432.9682 
44300000    1.1529113    300.94748    -419.6076   -8367.4489 
44400000    1.1529113    290.67844   -666.72859   -8401.3035 
44500000    1.1529113      298.166    152.82383   -8386.8407 
44600000    1.1529113    299.21331   -94.874138   -8420.5269 
44700000    1.1529113    294.93625   -634.29474   -8406.9524 
44800000    1.1529113    298.90152   -197.28174   -8418.0981 
44900000    1.1529113    304.13582    393.65036   -8395.6092 
45000000    1.1529113    289.88236    354.10795   -8365.3246 
Loop time of 25740.9 on 12 procs for 5000000 steps with 1572 atoms

Performance: 33.565 ns/day, 0.715 hours/ns, 194.244 timesteps/s
93.1% CPU use with 12 MPI tasks x no OpenMP threads

MPI task timing breakdown:
Section |  min time  |  avg time  |  max time  |%varavg| %total
---------------------------------------------------------------
Pair    | 14088      | 15265      | 16276      | 633.3 | 59.30
Bond    | 66.411     | 67.834     | 68.981     |  11.0 |  0.26
Kspace  | 6174.3     | 7187.6     | 8364.3     | 925.3 | 27.92
Neigh   | 810.61     | 811.43     | 812.63     |   2.1 |  3.15
Comm    | 778.42     | 784.56     | 790.65     |  16.2 |  3.05
Output  | 1.6846     | 1.7117     | 1.7165     |   0.6 |  0.01
Modify  | 1516.7     | 1519.6     | 1524.3     |   5.1 |  5.90
Other   |            | 103        |            |       |  0.40

Nlocal:    131 ave 138 max 116 min
Histogram: 1 1 0 0 1 1 0 1 4 3
Nghost:    4199.5 ave 4234 max 4145 min
Histogram: 1 2 1 0 0 0 1 1 3 3
Neighs:    47681.8 ave 53351 max 43436 min
Histogram: 1 1 3 2 2 0 0 2 0 1

Total # of neighbors = 572181
Ave neighs/atom = 363.983
Ave special neighs/atom = 1.9084
Neighbor list builds = 397332
Dangerous builds = 0
shell bash copy_files.sh dt_${tstep} 45.00Mstep
shell bash copy_files.sh dt_2 45.00Mstep

run ${Nrun4}
run 5000000
PPPM initialization ...
  extracting TIP4P info from pair style
  using 12-bit tables for long-range coulomb (../kspace.cpp:321)
  G vector (1/distance) = 0.310405
  grid = 24 24 24
  stencil order = 5
  estimated absolute RMS force accuracy = 0.0036586
  estimated relative force accuracy = 1.10178e-05
  using double precision FFTs
  3d grid and FFT values/proc = 5415 1152
Per MPI rank memory allocation (min/avg/max) = 14.31 | 14.32 | 14.32 Mbytes
Step Density Temp Press TotEng 
45000000    1.1529113    289.88236    354.06647   -8365.3246 
45100000    1.1529113    303.00444    496.01069   -8297.7555 
45200000    1.1529113    285.71586    61.400722   -8457.8729 
45300000    1.1529113    304.20039    811.00681   -8368.0903 
45400000    1.1529113    301.73877   -110.95059   -8382.1228 
45500000    1.1529113     293.8815   -40.093736   -8350.3531 
45600000    1.1529113    298.09854    338.80815   -8391.6781 
45700000    1.1529113    309.47956    99.100717    -8358.686 
45800000    1.1529113    298.86617    139.30462   -8397.8073 
45900000    1.1529113    299.70863   -17.409788   -8397.9749 
46000000    1.1529113    297.62086    784.46862   -8417.0314 
46100000    1.1529113    297.70921   -310.86232    -8445.295 
46200000    1.1529113    291.38141     281.8416   -8440.0283 
46300000    1.1529113    295.90749    -298.7707   -8418.9467 
46400000    1.1529113      284.574    672.49722   -8447.4056 
46500000    1.1529113    293.01783   -689.59734    -8395.032 
46600000    1.1529113    295.56784   -52.762967   -8392.6818 
46700000    1.1529113    300.91078   -181.02766   -8379.0178 
46800000    1.1529113    301.99922   -782.11447   -8402.8899 
46900000    1.1529113     301.2715   -295.75954   -8387.9049 
47000000    1.1529113     301.5196    224.57767   -8418.9152 
47100000    1.1529113    283.26003   -750.23591   -8430.2014 
47200000    1.1529113    290.01442   -154.74976    -8358.221 
47300000    1.1529113    298.71674   -320.83289   -8358.7137 
47400000    1.1529113     290.1452    89.510427    -8392.704 
47500000    1.1529113    298.39443    49.975331    -8389.383 
47600000    1.1529113    299.35996   -389.76372   -8385.2256 
47700000    1.1529113    287.60242    286.94324   -8477.6508 
47800000    1.1529113    290.45114    54.630787   -8479.8992 
47900000    1.1529113    296.11825   -859.91286   -8346.1469 
48000000    1.1529113    296.24222    144.70279   -8398.5499 
48100000    1.1529113    316.11716    303.77997   -8317.8309 
48200000    1.1529113    288.91779   -191.49109   -8394.5607 
48300000    1.1529113    288.61334    122.21343   -8380.6085 
48400000    1.1529113    309.51815   -847.16848   -8391.4045 
48500000    1.1529113    293.74079    539.77784   -8463.3877 
48600000    1.1529113    299.09412    -978.0085   -8404.2887 
48700000    1.1529113    290.39184   -588.67191   -8497.2304 
48800000    1.1529113    307.97292    572.39864   -8301.8001 
48900000    1.1529113     310.6714    -11.99736   -8380.3699 
49000000    1.1529113    291.45013    134.70576   -8395.4571 
49100000    1.1529113    298.89586   -267.02959   -8384.2735 
49200000    1.1529113     301.4134   -12.750694   -8371.5669 
49300000    1.1529113    302.97121    123.14601   -8317.9379 
49400000    1.1529113    286.04208    688.41153   -8412.6737 
49500000    1.1529113    292.36773    66.006703   -8404.8858 
49600000    1.1529113    284.15441   -410.35241   -8439.0425 
49700000    1.1529113    310.00016    409.70637   -8361.9457 
49800000    1.1529113    298.27853    381.78701   -8452.8722 
49900000    1.1529113    307.65156     133.4171   -8351.3267 
50000000    1.1529113    304.89729   -280.75476   -8337.3961 
Loop time of 25646.7 on 12 procs for 5000000 steps with 1572 atoms

Performance: 33.689 ns/day, 0.712 hours/ns, 194.957 timesteps/s
93.4% CPU use with 12 MPI tasks x no OpenMP threads

MPI task timing breakdown:
Section |  min time  |  avg time  |  max time  |%varavg| %total
---------------------------------------------------------------
Pair    | 14216      | 15273      | 16156      | 537.2 | 59.55
Bond    | 66.934     | 68.315     | 69.59      |  10.1 |  0.27
Kspace  | 6206.8     | 7090.8     | 8147.7     | 790.1 | 27.65
Neigh   | 809.29     | 810.04     | 811.11     |   1.9 |  3.16
Comm    | 777.97     | 785.11     | 792.99     |  18.3 |  3.06
Output  | 1.6836     | 1.6858     | 1.691      |   0.2 |  0.01
Modify  | 1513.6     | 1516.9     | 1519       |   4.2 |  5.91
Other   |            | 100.5      |            |       |  0.39

Nlocal:    131 ave 140 max 122 min
Histogram: 1 1 0 3 1 1 2 2 0 1
Nghost:    4201 ave 4226 max 4166 min
Histogram: 1 1 0 1 2 1 0 1 3 2
Neighs:    47702.2 ave 51757 max 43810 min
Histogram: 2 2 1 0 2 0 1 1 0 3

Total # of neighbors = 572427
Ave neighs/atom = 364.139
Ave special neighs/atom = 1.9084
Neighbor list builds = 397263
Dangerous builds = 0
