LAMMPS (16 Mar 2018)
####################################################
# Preprocessing Li2SO4 in water
#################### SETTING UP ####################
units real
dimension 3
newton on
boundary p p p
atom_style full

#################### VARIABLES ####################
variable Temp equal 298.15    # Temperature in K
variable Pres equal 1    # Pressure in atm.

variable RandomSeed equal 48 # The random seed for velocity
variable tstep equal 1 # timestep in fs

#################### NPT ####################
variable Ninptpre equal 10000 # Pre-initialize the NPT ensemble (very small timesteps)
variable Ninpt equal 5000000  # Initialize the NPT ensemble
variable Npnpt equal 5000000  # Production in the NPT ensemble (volume)

#################### NVT ####################
variable Ninvtpre equal 10000  # Pre-initialize the NVT ensemble (very small timesteps)
variable Ninvt equal 2500000   # Initialize the NVT ensemble 2.5Mstep
variable Nrun1 equal 250000  # production in the NVT ensemble (Transport properties)
variable Nrun2 equal 1000000  # production in the NVT ensemble (Transport properties)
variable Nrun3 equal 2500000  # production in the NVT ensemble (Transport properties)
variable Nrun4 equal 5000000  # production in the NVT ensemble (Transport properties)

variable Nf equal 100000      # Nfreq (fix ave/time and thermo)
variable Ne equal  1          # Nevery (fix ave/time)
variable Nr equal ${Nf}/${Ne} # Nrepeat (fix ave/time)
variable Nr equal 100000/${Ne} 
variable Nr equal 100000/1 
variable Nd equal ${Nf} 	  # Frequency of outputting positions of atoms in the NVT ensemble
variable Nd equal 100000 	  
variable NBR equal ${Npnpt}/100 # Block averaging for density (NPT)
variable NBR equal 5000000/100 

variable nb equal 10          # Number of blocks (fix ordern)
variable nbe equal 20         # Number of block elements (fix ordern)
variable Nvisc equal 5        # Nevery for viscosity (fix ordern: sample data at (Nvisc*2))
variable Ncond equal 5        # Nevery for Tconductivity (fix ordern: sample data at (Ncond*2))
variable Ndiff equal 1000     # Nevery for diffusivity (fix ordern: sample data at (Ndiff))
variable Nwrit equal 100000   # Nwrite for transport properties (fix ordern: write every (Nwrit))

variable Nrdfe equal 1000     # Nevery for RDF (fix ave/time)
variable Nrdfw equal 1000     # Nwrite for RDF (compute rdf/ext: write every (Nrdfw*Nrdfe))
variable binnum equal 2000    # Number of bins for RDF

#################### ATOM DEFINITION and FORCEFIELD ####################
read_data ./data.lmp                     # read the positions
  orthogonal box = (0 0 0) to (25.8482 25.8482 25.8482)
  2 by 2 by 3 MPI processor grid
  reading atoms ...
  1572 atoms
  scanning bonds ...
  2 = max bonds/atom
  scanning angles ...
  1 = max angles/atom
  reading bonds ...
  1000 bonds
  reading angles ...
  500 angles
  2 = max # of 1-2 neighbors
  1 = max # of 1-3 neighbors
  1 = max # of 1-4 neighbors
  2 = max # of special neighbors
include ./forcefield.data                # read the force field
#--------INTERMOLECULAR POTENTIAL -------------------#
# --------Developed for MadridT KCl + TIP4P/2005-----#

mass 1 15.9994	# Ow
mass 2 1.008	# Hw
mass 3 39.0983	# K
mass 4 35.453	# Cl


pair_style lj/cut/tip4p/long 1 2 1 1 0.1546 10.0
kspace_style pppm/tip4p 1.0e-5
pair_modify mix arithmetic tail yes # ATC and Lorentz-Berthelot combining rules

#-----------------Combinations----------------------------
# atomtype atomtype epsilon sigma

pair_coeff 1 1 0.185200 3.15890    # Ow-Ow
pair_coeff 1 2 0.000000 0.00000    # Ow-Hw
pair_coeff 1 3 0.334711 2.89540    # Ow-K
pair_coeff 1 4 0.014814 4.07631    # Ow-Cl

pair_coeff 2 2 0.000000 0.00000    # Hw-Hw
pair_coeff 2 3 0.000000 0.00000    # Hw-K
pair_coeff 2 4 0.000000 0.00000    # Hw-Cl

pair_coeff 3 3 0.474603 3.41700    # K-K
pair_coeff 3 4 0.334608 3.41700    # K-Cl

pair_coeff 4 4 0.018385 4.69906    # Cl-Cl

bond_style  harmonic
bond_coeff 1 2000 0.9572           # Ow-Hw

angle_style harmonic
angle_coeff 1 200 104.52           # H-Ow-H

#dihedral_style none
#improper_style none

set type 1 charge -1.1128          # O
  500 settings made for charge
set type 2 charge +0.5564          # OH
  1000 settings made for charge
set type 3 charge +0.7500          # K
  36 settings made for charge
set type 4 charge -0.7500          # Cl
  36 settings made for charge

#################### INITIALIZATION ####################
group wat type 1		# O water
500 atoms in group wat
group K type 3			# Potasium ion
36 atoms in group K
group Cl type 4			# Chlorine ion
36 atoms in group Cl

# neigbor lists
neighbor 2.0 bin
neigh_modify every 1 delay 0 check yes

# velocity-Verlet integrator
run_style verlet

# initializing velocities
velocity all create ${Temp} ${RandomSeed}
velocity all create 298.15 ${RandomSeed}
velocity all create 298.15 48

# rate of writing thermal properties to the log file
thermo_style custom step density temp press etotal
thermo_modify flush yes
thermo ${Nf}
thermo 100000

#################### 2) Initialize the NPT ensemble ####################
######### Go to the correct temperature now ant initiate that ##########
fix constrain all shake 1.0e-6 1000 0 b 1 a 1
  0 = # of size 2 clusters
  0 = # of size 3 clusters
  0 = # of size 4 clusters
  500 = # of frozen angles
fix integrate all npt temp ${Temp} ${Temp} 10.0 iso ${Pres} ${Pres} 100.0
fix integrate all npt temp 298.15 ${Temp} 10.0 iso ${Pres} ${Pres} 100.0
fix integrate all npt temp 298.15 298.15 10.0 iso ${Pres} ${Pres} 100.0
fix integrate all npt temp 298.15 298.15 10.0 iso 1 ${Pres} 100.0
fix integrate all npt temp 298.15 298.15 10.0 iso 1 1 100.0


# Initializing the whole system with very small timesteps in the NPT ensemble
timestep 0.001
run ${Ninptpre}
run 10000
PPPM initialization ...
  extracting TIP4P info from pair style
  using 12-bit tables for long-range coulomb (../kspace.cpp:321)
  G vector (1/distance) = 0.309797
  grid = 24 24 24
  stencil order = 5
  estimated absolute RMS force accuracy = 0.00375155
  estimated relative force accuracy = 1.12977e-05
  using double precision FFTs
  3d grid and FFT values/proc = 5415 1152
Neighbor list info ...
  update every 1 steps, delay 0 steps, check yes
  max neighbors/atom: 2000, page size: 100000
  master list distance cutoff = 12.3092
  ghost atom cutoff = 12.3092
  binsize = 6.1546, bins = 5 5 5
  1 neighbor lists, perpetual/occasional/extra = 1 0 0
  (1) pair lj/cut/tip4p/long, perpetual
      attributes: half, newton on
      pair build: half/bin/newton
      stencil: half/bin/3d/newton
      bin: standard
Per MPI rank memory allocation (min/avg/max) = 8.286 | 8.289 | 8.293 Mbytes
Step Density Temp Press TotEng 
       0    1.1241608    437.34234    2609236.2    2311.9202 
   10000     1.021881     1126.377    14440.671    358.20777 
Loop time of 39.7621 on 12 procs for 10000 steps with 1572 atoms

Performance: 0.022 ns/day, 1104.501 hours/ns, 251.496 timesteps/s
94.2% CPU use with 12 MPI tasks x no OpenMP threads

MPI task timing breakdown:
Section |  min time  |  avg time  |  max time  |%varavg| %total
---------------------------------------------------------------
Pair    | 21.591     | 23.404     | 26.291     |  29.9 | 58.86
Bond    | 0.005621   | 0.0064119  | 0.0070318  |   0.4 |  0.02
Kspace  | 7.1945     | 10.109     | 11.947     |  45.6 | 25.42
Neigh   | 0.0017754  | 0.0017859  | 0.0017963  |   0.0 |  0.00
Comm    | 1.2851     | 1.3081     | 1.3435     |   1.7 |  3.29
Output  | 5.725e-05  | 7.8785e-05 | 0.0002995  |   0.0 |  0.00
Modify  | 4.5306     | 4.725      | 4.7643     |   2.8 | 11.88
Other   |            | 0.2071     |            |       |  0.52

Nlocal:    131 ave 140 max 124 min
Histogram: 1 4 0 1 2 0 0 2 1 1
Nghost:    4121.5 ave 4178 max 4032 min
Histogram: 2 2 0 0 0 0 0 2 4 2
Neighs:    44087.2 ave 48285 max 40814 min
Histogram: 2 1 1 3 1 1 0 1 0 2

Total # of neighbors = 529047
Ave neighs/atom = 336.544
Ave special neighs/atom = 1.9084
Neighbor list builds = 1
Dangerous builds = 0
timestep 0.01
run ${Ninptpre}
run 10000
PPPM initialization ...
  extracting TIP4P info from pair style
  using 12-bit tables for long-range coulomb (../kspace.cpp:321)
  G vector (1/distance) = 0.310446
  grid = 25 25 25
  stencil order = 5
  estimated absolute RMS force accuracy = 0.00343529
  estimated relative force accuracy = 1.03453e-05
  using double precision FFTs
  3d grid and FFT values/proc = 6400 1875
Per MPI rank memory allocation (min/avg/max) = 8.324 | 8.349 | 8.395 Mbytes
Step Density Temp Press TotEng 
   10000     1.021881     1126.377    1436257.5    358.21823 
   20000     1.157833    295.28995   -886.72748   -7241.6354 
Loop time of 41.4872 on 12 procs for 10000 steps with 1572 atoms

Performance: 0.208 ns/day, 115.242 hours/ns, 241.038 timesteps/s
91.2% CPU use with 12 MPI tasks x no OpenMP threads

MPI task timing breakdown:
Section |  min time  |  avg time  |  max time  |%varavg| %total
---------------------------------------------------------------
Pair    | 20.74      | 22.761     | 25.127     |  26.3 | 54.86
Bond    | 0.005767   | 0.00654    | 0.0072415  |   0.4 |  0.02
Kspace  | 8.1738     | 10.545     | 12.555     |  38.6 | 25.42
Neigh   | 0.015703   | 0.015779   | 0.015863   |   0.0 |  0.04
Comm    | 1.2563     | 1.2803     | 1.2949     |   1.1 |  3.09
Output  | 6.0245e-05 | 7.5785e-05 | 0.00023748 |   0.0 |  0.00
Modify  | 4.7121     | 5.1388     | 6.7391     |  21.6 | 12.39
Other   |            | 1.74       |            |       |  4.19

Nlocal:    131 ave 136 max 126 min
Histogram: 2 1 0 0 1 3 1 1 1 2
Nghost:    4259.67 ave 4324 max 4189 min
Histogram: 2 1 1 0 1 2 1 0 2 2
Neighs:    47147.2 ave 50269 max 43282 min
Histogram: 1 2 0 1 1 0 2 1 3 1

Total # of neighbors = 565766
Ave neighs/atom = 359.902
Ave special neighs/atom = 1.9084
Neighbor list builds = 9
Dangerous builds = 0
timestep 0.1
run ${Ninptpre}
run 10000
PPPM initialization ...
  extracting TIP4P info from pair style
  using 12-bit tables for long-range coulomb (../kspace.cpp:321)
  G vector (1/distance) = 0.310507
  grid = 24 24 24
  stencil order = 5
  estimated absolute RMS force accuracy = 0.00364316
  estimated relative force accuracy = 1.09713e-05
  using double precision FFTs
  3d grid and FFT values/proc = 5415 1152
Per MPI rank memory allocation (min/avg/max) = 8.286 | 8.29 | 8.293 Mbytes
Step Density Temp Press TotEng 
   20000     1.157833    295.28995   -22173.004   -7241.6518 
   30000    1.1892545     304.5802    879.14841   -8290.5863 
Loop time of 43.0284 on 12 procs for 10000 steps with 1572 atoms

Performance: 2.008 ns/day, 11.952 hours/ns, 232.405 timesteps/s
94.5% CPU use with 12 MPI tasks x no OpenMP threads

MPI task timing breakdown:
Section |  min time  |  avg time  |  max time  |%varavg| %total
---------------------------------------------------------------
Pair    | 23.312     | 26.469     | 28.617     |  31.6 | 61.52
Bond    | 0.0059009  | 0.0065108  | 0.0077067  |   0.5 |  0.02
Kspace  | 7.9735     | 10.13      | 13.277     |  51.1 | 23.54
Neigh   | 0.090619   | 0.090924   | 0.091167   |   0.1 |  0.21
Comm    | 1.3184     | 1.3321     | 1.3505     |   0.9 |  3.10
Output  | 6.2332e-05 | 7.8366e-05 | 0.00024314 |   0.0 |  0.00
Modify  | 4.5903     | 4.789      | 4.842      |   2.9 | 11.13
Other   |            | 0.2106     |            |       |  0.49

Nlocal:    131 ave 143 max 121 min
Histogram: 3 1 0 2 0 1 1 2 1 1
Nghost:    4304.17 ave 4321 max 4275 min
Histogram: 1 1 0 0 0 3 0 3 2 2
Neighs:    49141.2 ave 55855 max 42215 min
Histogram: 1 1 3 0 1 2 0 0 2 2

Total # of neighbors = 589694
Ave neighs/atom = 375.123
Ave special neighs/atom = 1.9084
Neighbor list builds = 46
Dangerous builds = 0
timestep 0.2
run ${Ninptpre}
run 10000
PPPM initialization ...
  extracting TIP4P info from pair style
  using 12-bit tables for long-range coulomb (../kspace.cpp:321)
  G vector (1/distance) = 0.311149
  grid = 24 24 24
  stencil order = 5
  estimated absolute RMS force accuracy = 0.00354761
  estimated relative force accuracy = 1.06835e-05
  using double precision FFTs
  3d grid and FFT values/proc = 5415 1152
Per MPI rank memory allocation (min/avg/max) = 8.287 | 8.312 | 8.535 Mbytes
Step Density Temp Press TotEng 
   30000    1.1892545     304.5802    4419.7139   -8290.5862 
   40000    1.1563722    313.09261    400.78335   -8336.6433 
Loop time of 43.324 on 12 procs for 10000 steps with 1572 atoms

Performance: 3.989 ns/day, 6.017 hours/ns, 230.819 timesteps/s
93.7% CPU use with 12 MPI tasks x no OpenMP threads

MPI task timing breakdown:
Section |  min time  |  avg time  |  max time  |%varavg| %total
---------------------------------------------------------------
Pair    | 23         | 26.23      | 28.641     |  36.5 | 60.54
Bond    | 0.0059529  | 0.0065921  | 0.007614   |   0.5 |  0.02
Kspace  | 8.1778     | 10.584     | 13.803     |  57.4 | 24.43
Neigh   | 0.17068    | 0.17113    | 0.1714     |   0.1 |  0.40
Comm    | 1.326      | 1.3456     | 1.3709     |   1.2 |  3.11
Output  | 5.8576e-05 | 7.5284e-05 | 0.00024386 |   0.0 |  0.00
Modify  | 4.5789     | 4.7782     | 4.8259     |   2.8 | 11.03
Other   |            | 0.2084     |            |       |  0.48

Nlocal:    131 ave 141 max 123 min
Histogram: 1 2 2 1 1 0 2 1 1 1
Nghost:    4211.42 ave 4274 max 4144 min
Histogram: 1 1 2 0 2 1 1 1 2 1
Neighs:    47768.5 ave 54593 max 41818 min
Histogram: 2 1 2 1 0 1 1 2 1 1

Total # of neighbors = 573222
Ave neighs/atom = 364.645
Ave special neighs/atom = 1.9084
Neighbor list builds = 86
Dangerous builds = 0
timestep 0.5
run ${Ninptpre}
run 10000
PPPM initialization ...
  extracting TIP4P info from pair style
  using 12-bit tables for long-range coulomb (../kspace.cpp:321)
  G vector (1/distance) = 0.310477
  grid = 24 24 24
  stencil order = 5
  estimated absolute RMS force accuracy = 0.00364773
  estimated relative force accuracy = 1.0985e-05
  using double precision FFTs
  3d grid and FFT values/proc = 5415 1152
Per MPI rank memory allocation (min/avg/max) = 8.288 | 8.394 | 8.542 Mbytes
Step Density Temp Press TotEng 
   40000    1.1563722    313.09261    257.53607   -8336.6442 
   50000    1.1505702    302.45597     580.7887   -8410.2019 
Loop time of 44.0326 on 12 procs for 10000 steps with 1572 atoms

Performance: 9.811 ns/day, 2.446 hours/ns, 227.104 timesteps/s
93.5% CPU use with 12 MPI tasks x no OpenMP threads

MPI task timing breakdown:
Section |  min time  |  avg time  |  max time  |%varavg| %total
---------------------------------------------------------------
Pair    | 23.704     | 26.385     | 29.291     |  35.6 | 59.92
Bond    | 0.0060211  | 0.0065697  | 0.007221   |   0.3 |  0.01
Kspace  | 7.9127     | 10.815     | 13.485     |  55.5 | 24.56
Neigh   | 0.43829    | 0.43929    | 0.44027    |   0.1 |  1.00
Comm    | 1.3619     | 1.3793     | 1.3996     |   1.0 |  3.13
Output  | 6.1676e-05 | 7.6937e-05 | 0.00023939 |   0.0 |  0.00
Modify  | 4.5978     | 4.7974     | 4.8439     |   2.8 | 10.90
Other   |            | 0.2104     |            |       |  0.48

Nlocal:    131 ave 140 max 123 min
Histogram: 1 3 0 0 2 2 1 0 2 1
Nghost:    4163.92 ave 4196 max 4147 min
Histogram: 2 1 4 2 1 0 0 0 1 1
Neighs:    47138.5 ave 53786 max 41850 min
Histogram: 1 2 2 2 1 1 0 0 1 2

Total # of neighbors = 565662
Ave neighs/atom = 359.836
Ave special neighs/atom = 1.9084
Neighbor list builds = 219
Dangerous builds = 0
reset_timestep 0

# continuing the initialization with the final value of timestep
unfix integrate
fix integrate all npt temp ${Temp} ${Temp} 100.0 iso ${Pres} ${Pres} 1000.0
fix integrate all npt temp 298.15 ${Temp} 100.0 iso ${Pres} ${Pres} 1000.0
fix integrate all npt temp 298.15 298.15 100.0 iso ${Pres} ${Pres} 1000.0
fix integrate all npt temp 298.15 298.15 100.0 iso 1 ${Pres} 1000.0
fix integrate all npt temp 298.15 298.15 100.0 iso 1 1 1000.0

timestep ${tstep}
timestep 1


run ${Ninpt}
run 5000000
PPPM initialization ...
  extracting TIP4P info from pair style
  using 12-bit tables for long-range coulomb (../kspace.cpp:321)
  G vector (1/distance) = 0.310356
  grid = 24 24 24
  stencil order = 5
  estimated absolute RMS force accuracy = 0.003666
  estimated relative force accuracy = 1.104e-05
  using double precision FFTs
  3d grid and FFT values/proc = 5415 1152
Per MPI rank memory allocation (min/avg/max) = 8.291 | 8.456 | 8.66 Mbytes
Step Density Temp Press TotEng 
       0    1.1505702    302.45597   -339.43882   -8410.2023 
  100000    1.1228514    292.72818   -905.33785   -8419.2562 
  200000    1.1599967    297.58694    186.93883   -8406.0035 
  300000     1.156849    293.28382    190.69825   -8445.8183 
  400000    1.1573629    295.69027    8.0202507   -8399.5121 
  500000    1.1578967    294.32411     81.83038   -8438.1134 
  600000    1.1540199    299.70391    1318.1261   -8452.1648 
  700000    1.1335983    301.42996   -149.67156   -8366.3307 
  800000    1.1542587    296.78302    386.03074   -8370.5742 
  900000    1.1658303    291.01336    32.301429   -8472.2427 
 1000000    1.1360537    304.42361   -248.38528   -8322.4325 
 1100000    1.1516686     303.7477   -592.77506   -8365.5569 
 1200000    1.1446154    295.27603   -358.03645   -8432.1441 
 1300000    1.1598533     304.5363   -303.61646   -8368.7521 
 1400000    1.1493195    297.42095   -749.56204   -8377.8741 
 1500000    1.1595995    300.59746   -889.99967    -8401.745 
 1600000    1.1533901    302.29285   -908.46579    -8370.775 
 1700000     1.161559    293.03694   -475.26757   -8442.9204 
 1800000    1.1548421    283.81967    157.58269   -8410.8803 
 1900000    1.1607367    299.61834   -17.390564   -8463.7466 
 2000000    1.1533021    306.12503    -332.8094   -8418.9876 
 2100000    1.1451177    310.90189   -123.31559   -8288.0511 
 2200000    1.1472147    301.96425    69.688632   -8336.1874 
 2300000    1.1690038    305.76677    660.27341   -8377.1382 
 2400000    1.1667804     295.5303   -725.01632   -8399.7967 
 2500000    1.1287167    302.27489    -75.21876     -8369.06 
 2600000    1.1524261    289.15763    83.857431   -8409.0375 
 2700000    1.1608623    310.37545    248.94074   -8396.2478 
 2800000    1.1623327    295.12718    1290.5612   -8400.3781 
 2900000    1.1563647    290.69993    329.33612   -8347.1429 
 3000000    1.1597431    282.28568    259.11273   -8464.8676 
 3100000    1.1514469    293.80019    629.07343     -8388.57 
 3200000    1.1323213    290.17337   -1364.2688   -8413.4435 
 3300000    1.1413834    302.81375   -240.94577   -8364.9063 
 3400000    1.1394789    299.95704   -541.23963   -8395.4256 
 3500000    1.1206639    293.26947   -1670.6044   -8406.7413 
 3600000    1.1485596    298.55654    16.945833    -8412.703 
 3700000    1.1534843    280.92879    1027.6402   -8465.2149 
 3800000    1.1517881    302.66385    288.59547   -8463.1769 
 3900000    1.1573086    295.36711   -463.35665   -8452.8796 
 4000000    1.1710227    280.26248    942.45966   -8419.6169 
 4100000     1.156396    302.74902    142.44891   -8412.5813 
 4200000     1.149606    295.89541    -144.8039   -8337.2263 
 4300000    1.1425165    298.43693    448.65619   -8346.3662 
 4400000    1.1469965    292.59762   -297.79159   -8397.3836 
 4500000    1.1577346    299.10833    -186.0731   -8387.8751 
 4600000    1.1325625    291.70968   -2045.1569   -8425.7895 
 4700000    1.1448654    303.25622   -825.63179   -8361.9895 
 4800000    1.1409032    290.59827    -235.0804   -8421.1726 
 4900000    1.1399316     294.3043    413.77384   -8433.1843 
 5000000    1.1628641    307.10304    450.83262    -8392.128 
Loop time of 22352.6 on 12 procs for 5000000 steps with 1572 atoms

Performance: 19.327 ns/day, 1.242 hours/ns, 223.687 timesteps/s
93.6% CPU use with 12 MPI tasks x no OpenMP threads

MPI task timing breakdown:
Section |  min time  |  avg time  |  max time  |%varavg| %total
---------------------------------------------------------------
Pair    | 12370      | 13320      | 14125      | 562.9 | 59.59
Bond    | 2.9921     | 3.2684     | 3.6342     |   8.4 |  0.01
Kspace  | 4587.3     | 5396       | 6349.2     | 885.9 | 24.14
Neigh   | 411.13     | 411.77     | 412.17     |   1.8 |  1.84
Comm    | 699.44     | 708.84     | 721.64     |  24.7 |  3.17
Output  | 0.0030595  | 0.003842   | 0.012148   |   4.0 |  0.00
Modify  | 2308.6     | 2408.8     | 2430.7     |  63.4 | 10.78
Other   |            | 104.2      |            |       |  0.47

Nlocal:    131 ave 140 max 118 min
Histogram: 1 1 0 2 0 2 1 1 1 3
Nghost:    4229.83 ave 4293 max 4181 min
Histogram: 1 1 3 0 2 3 0 1 0 1
Neighs:    48093.1 ave 51862 max 42535 min
Histogram: 1 1 0 2 0 1 2 1 2 2

Total # of neighbors = 577117
Ave neighs/atom = 367.123
Ave special neighs/atom = 1.9084
Neighbor list builds = 203401
Dangerous builds = 0
reset_timestep 0


#################### 3) Obtaining average volume in NPT ######################
# Creating restart files
restart ${Nf} 1.restart 2.restart
restart 100000 1.restart 2.restart

# Getting the average volume of the system
variable Volume equal vol
fix VoluAve all ave/time 1 ${Npnpt} ${Npnpt} v_Volume file volume.dat
fix VoluAve all ave/time 1 5000000 ${Npnpt} v_Volume file volume.dat
fix VoluAve all ave/time 1 5000000 5000000 v_Volume file volume.dat

variable Dens equal density
fix DensAve all ave/time 1 ${NBR} ${NBR} v_Dens file density.dat
fix DensAve all ave/time 1 50000 ${NBR} v_Dens file density.dat
fix DensAve all ave/time 1 50000 50000 v_Dens file density.dat

compute T1 all temp
fix TempAve1 all ave/time 1 ${NBR} ${NBR} c_T1 file temperatureNPT.dat
fix TempAve1 all ave/time 1 50000 ${NBR} c_T1 file temperatureNPT.dat
fix TempAve1 all ave/time 1 50000 50000 c_T1 file temperatureNPT.dat

compute P1 all pressure T1
fix PressAve1 all ave/time 1 ${NBR} ${NBR} c_P1 file pressureNPT.dat
fix PressAve1 all ave/time 1 50000 ${NBR} c_P1 file pressureNPT.dat
fix PressAve1 all ave/time 1 50000 50000 c_P1 file pressureNPT.dat

run ${Npnpt}
run 5000000
PPPM initialization ...
  extracting TIP4P info from pair style
  using 12-bit tables for long-range coulomb (../kspace.cpp:321)
  G vector (1/distance) = 0.310611
  grid = 24 24 24
  stencil order = 5
  estimated absolute RMS force accuracy = 0.00362751
  estimated relative force accuracy = 1.09241e-05
  using double precision FFTs
  3d grid and FFT values/proc = 5415 1152
Per MPI rank memory allocation (min/avg/max) = 8.659 | 8.663 | 8.666 Mbytes
Step Density Temp Press TotEng 
       0    1.1628641    307.10304    446.11336   -8392.1281 
  100000    1.1254373    303.89277   -940.20533   -8386.3272 
  200000     1.160058    296.41984   -234.62704   -8422.5158 
  300000    1.1538891    297.88543   -436.92747   -8430.1618 
  400000    1.1477983    306.68387    851.47379   -8367.2828 
  500000    1.1396196     303.5142   -397.74204   -8345.9505 
  600000    1.1493121    302.53148    158.23084   -8389.8608 
  700000     1.157196    296.81631   -475.07769   -8404.9089 
  800000    1.1498764    301.72329    843.66913   -8371.3451 
  900000    1.1369631    311.97211   -539.62586   -8361.7818 
 1000000    1.1514725    291.43538   -810.45484   -8444.3027 
 1100000     1.154371    294.84457   -386.26912   -8424.6639 
 1200000    1.1602148    299.66209    568.80146   -8403.8312 
 1300000    1.1439545    297.44935    301.13013   -8384.4483 
 1400000    1.1447703    288.24734   -687.47923    -8365.485 
 1500000    1.1567984    295.78916   -638.26922    -8502.266 
 1600000    1.1660019    298.66625   -73.324148   -8466.1138 
 1700000    1.1582622    294.38434    15.412932   -8382.9336 
 1800000    1.1547403    306.05694    169.33432     -8367.16 
 1900000    1.1444384    293.32356   -441.48783   -8435.4433 
 2000000    1.1622326    290.88601    814.97503   -8483.5247 
 2100000    1.1539325    299.42447    313.53762   -8397.5184 
 2200000    1.1573782    297.65987     487.8344   -8388.2216 
 2300000    1.1485314    307.70163   -799.88632   -8400.4859 
 2400000    1.1593088    307.39401   -457.01297   -8382.4255 
 2500000    1.1428692    303.94525    617.80297   -8423.7935 
 2600000    1.1510817    298.27655   -740.64181   -8412.3325 
 2700000    1.1375033    294.18793   -974.12691   -8455.2388 
 2800000    1.1559901    302.09263    648.46089    -8383.358 
 2900000    1.1717156    302.76008    814.28799   -8410.1696 
 3000000    1.1273173    312.26623   -852.19513   -8399.1935 
 3100000    1.1472365    297.59404   -598.87194   -8404.1628 
 3200000    1.1365995    294.30845   -675.50248   -8392.1144 
 3300000     1.156973    299.04879   -359.03448   -8408.8669 
 3400000    1.1689625    300.88873    335.70153   -8376.8329 
 3500000    1.1519354    303.89082    210.42758   -8377.8801 
 3600000    1.1577232    298.72901     375.1846   -8395.8195 
 3700000    1.1614618    303.06265    144.36518    -8390.251 
 3800000    1.1621569    300.79734    234.82522    -8421.606 
 3900000    1.1554072    291.05776    617.05006   -8438.3551 
 4000000    1.1544454    289.57965   -638.33536   -8453.0088 
 4100000    1.1617105    287.44796    703.10483   -8477.3216 
 4200000    1.1418647    280.76122   -111.59982   -8475.3776 
 4300000    1.1598825    301.54601   -336.36878   -8372.7204 
 4400000    1.1356275    305.92928    112.95681    -8403.009 
 4500000    1.1776137    308.91748    593.96733   -8384.6986 
 4600000    1.1563328    298.22224   -89.571735   -8420.6765 
 4700000    1.1546993    293.68534    -26.91186    -8394.316 
 4800000    1.1521677    300.71605    1035.5718     -8358.24 
 4900000    1.1420611    294.41284    119.49845   -8346.4812 
 5000000    1.1594586    294.77827    553.15235    -8423.214 
Loop time of 22577 on 12 procs for 5000000 steps with 1572 atoms

Performance: 19.135 ns/day, 1.254 hours/ns, 221.464 timesteps/s
93.6% CPU use with 12 MPI tasks x no OpenMP threads

MPI task timing breakdown:
Section |  min time  |  avg time  |  max time  |%varavg| %total
---------------------------------------------------------------
Pair    | 12553      | 13397      | 14178      | 494.7 | 59.34
Bond    | 3.1769     | 3.3658     | 3.6337     |   6.3 |  0.01
Kspace  | 4576.9     | 5366.2     | 6219.1     | 783.6 | 23.77
Neigh   | 410.41     | 410.96     | 411.31     |   1.4 |  1.82
Comm    | 700.72     | 710.49     | 724.1      |  26.0 |  3.15
Output  | 0.21851    | 0.21904    | 0.2242     |   0.3 |  0.00
Modify  | 2483.3     | 2583.8     | 2605.8     |  61.4 | 11.44
Other   |            | 104.8      |            |       |  0.46

Nlocal:    131 ave 146 max 123 min
Histogram: 2 2 1 3 1 1 1 0 0 1
Nghost:    4242.42 ave 4301 max 4185 min
Histogram: 2 0 1 3 0 1 1 1 1 2
Neighs:    48006.3 ave 53686 max 43334 min
Histogram: 2 2 2 1 0 0 0 3 0 2

Total # of neighbors = 576076
Ave neighs/atom = 366.461
Ave special neighs/atom = 1.9084
Neighbor list builds = 203559
Dangerous builds = 0

#################### 4) Initializing the NVT ensemble ####################
# scaling the size of the system to the average volume
variable sidesize equal (f_VoluAve^(1.0/3.0))    # get the volume
variable xlow equal xlo
variable ylow equal ylo
variable zlow equal zlo
variable xhig equal (xlo+${sidesize})
variable xhig equal (xlo+25.633018126874)
variable yhig equal (ylo+${sidesize})
variable yhig equal (ylo+25.633018126874)
variable zhig equal (zlo+${sidesize})
variable zhig equal (zlo+25.633018126874)
change_box all x final ${xlow} ${xhig} y final ${ylow} ${yhig} z final ${zlow} ${zhig}
change_box all x final 0.132504869413305 ${xhig} y final ${ylow} ${yhig} z final ${zlow} ${zhig}
change_box all x final 0.132504869413305 25.7655229962873 y final ${ylow} ${yhig} z final ${zlow} ${zhig}
change_box all x final 0.132504869413305 25.7655229962873 y final 0.132504869413305 ${yhig} z final ${zlow} ${zhig}
change_box all x final 0.132504869413305 25.7655229962873 y final 0.132504869413305 25.7655229962873 z final ${zlow} ${zhig}
change_box all x final 0.132504869413305 25.7655229962873 y final 0.132504869413305 25.7655229962873 z final 0.132504869413305 ${zhig}
change_box all x final 0.132504869413305 25.7655229962873 y final 0.132504869413305 25.7655229962873 z final 0.132504869413305 25.7655229962873
  orthogonal box = (0.132505 0.132505 0.132505) to (25.7655 25.7157 25.7157)
  orthogonal box = (0.132505 0.132505 0.132505) to (25.7655 25.7655 25.7157)
  orthogonal box = (0.132505 0.132505 0.132505) to (25.7655 25.7655 25.7655)
unfix DensAve
unfix VoluAve
unfix TempAve1
unfix PressAve1

# changing the ensemble to NVT
unfix integrate
fix integrate all nvt temp ${Temp} ${Temp} 10.0
fix integrate all nvt temp 298.15 ${Temp} 10.0
fix integrate all nvt temp 298.15 298.15 10.0

timestep 0.001
run ${Ninvtpre}
run 10000
PPPM initialization ...
  extracting TIP4P info from pair style
  using 12-bit tables for long-range coulomb (../kspace.cpp:321)
  G vector (1/distance) = 0.310401
  grid = 24 24 24
  stencil order = 5
  estimated absolute RMS force accuracy = 0.00365923
  estimated relative force accuracy = 1.10196e-05
  using double precision FFTs
  3d grid and FFT values/proc = 5415 1152
Per MPI rank memory allocation (min/avg/max) = 8.659 | 8.663 | 8.666 Mbytes
Step Density Temp Press TotEng 
 5000000    1.1527146    294.77827   -40088.213   -8447.6991 
 5010000    1.1527146    301.55683   -167.95509   -8404.9197 
Loop time of 30.0513 on 12 procs for 10000 steps with 1572 atoms

Performance: 0.029 ns/day, 834.758 hours/ns, 332.765 timesteps/s
93.9% CPU use with 12 MPI tasks x no OpenMP threads

MPI task timing breakdown:
Section |  min time  |  avg time  |  max time  |%varavg| %total
---------------------------------------------------------------
Pair    | 16.313     | 18.269     | 20.104     |  29.1 | 60.79
Bond    | 0.0035687  | 0.0039838  | 0.0044688  |   0.4 |  0.01
Kspace  | 7.2297     | 9.0515     | 10.91      |  40.6 | 30.12
Neigh   | 0          | 0          | 0          |   0.0 |  0.00
Comm    | 1.3836     | 1.4856     | 1.5902     |   5.7 |  4.94
Output  | 6.2555e-05 | 7.6589e-05 | 0.00021993 |   0.0 |  0.00
Modify  | 1.042      | 1.0707     | 1.0903     |   1.4 |  3.56
Other   |            | 0.1703     |            |       |  0.57

Nlocal:    131 ave 146 max 122 min
Histogram: 1 1 3 3 1 1 1 0 0 1
Nghost:    4234.17 ave 4289 max 4176 min
Histogram: 2 0 1 2 1 1 1 1 1 2
Neighs:    47730.9 ave 53139 max 43469 min
Histogram: 3 0 3 1 0 0 1 1 1 2

Total # of neighbors = 572771
Ave neighs/atom = 364.358
Ave special neighs/atom = 1.9084
Neighbor list builds = 0
Dangerous builds = 0
timestep 0.01
run ${Ninvtpre}
run 10000
PPPM initialization ...
  extracting TIP4P info from pair style
  using 12-bit tables for long-range coulomb (../kspace.cpp:321)
  G vector (1/distance) = 0.310401
  grid = 24 24 24
  stencil order = 5
  estimated absolute RMS force accuracy = 0.00365923
  estimated relative force accuracy = 1.10196e-05
  using double precision FFTs
  3d grid and FFT values/proc = 5415 1152
Per MPI rank memory allocation (min/avg/max) = 8.659 | 8.663 | 8.666 Mbytes
Step Density Temp Press TotEng 
 5010000    1.1527146    301.55683   -167.97504   -8404.9197 
 5020000    1.1527146    307.83721    -795.5554   -8400.1706 
Loop time of 30.3914 on 12 procs for 10000 steps with 1572 atoms

Performance: 0.284 ns/day, 84.420 hours/ns, 329.041 timesteps/s
93.3% CPU use with 12 MPI tasks x no OpenMP threads

MPI task timing breakdown:
Section |  min time  |  avg time  |  max time  |%varavg| %total
---------------------------------------------------------------
Pair    | 16.43      | 18.272     | 20.372     |  29.8 | 60.12
Bond    | 0.0036707  | 0.0039459  | 0.0042817  |   0.3 |  0.01
Kspace  | 7.4981     | 9.546      | 11.349     |  40.2 | 31.41
Neigh   | 0.007943   | 0.0079556  | 0.0079662  |   0.0 |  0.03
Comm    | 1.2691     | 1.3227     | 1.3874     |   3.0 |  4.35
Output  | 6.2436e-05 | 7.788e-05  | 0.00023802 |   0.0 |  0.00
Modify  | 1.061      | 1.0701     | 1.0785     |   0.4 |  3.52
Other   |            | 0.1686     |            |       |  0.55

Nlocal:    131 ave 140 max 118 min
Histogram: 1 0 1 2 1 0 2 1 2 2
Nghost:    4233.17 ave 4267 max 4192 min
Histogram: 1 1 2 0 1 0 1 3 2 1
Neighs:    47723.6 ave 54728 max 41682 min
Histogram: 1 1 4 0 0 2 1 1 0 2

Total # of neighbors = 572683
Ave neighs/atom = 364.302
Ave special neighs/atom = 1.9084
Neighbor list builds = 4
Dangerous builds = 0
timestep 0.1
run ${Ninvtpre}
run 10000
PPPM initialization ...
  extracting TIP4P info from pair style
  using 12-bit tables for long-range coulomb (../kspace.cpp:321)
  G vector (1/distance) = 0.310401
  grid = 24 24 24
  stencil order = 5
  estimated absolute RMS force accuracy = 0.00365923
  estimated relative force accuracy = 1.10196e-05
  using double precision FFTs
  3d grid and FFT values/proc = 5415 1152
Per MPI rank memory allocation (min/avg/max) = 8.659 | 8.663 | 8.666 Mbytes
Step Density Temp Press TotEng 
 5020000    1.1527146    307.83721   -795.32988   -8400.1706 
 5030000    1.1527146    294.77821   -706.82985   -8437.9899 
Loop time of 30.1899 on 12 procs for 10000 steps with 1572 atoms

Performance: 2.862 ns/day, 8.386 hours/ns, 331.236 timesteps/s
93.8% CPU use with 12 MPI tasks x no OpenMP threads

MPI task timing breakdown:
Section |  min time  |  avg time  |  max time  |%varavg| %total
---------------------------------------------------------------
Pair    | 16.926     | 18.421     | 20.071     |  22.0 | 61.02
Bond    | 0.0035508  | 0.004025   | 0.0044175  |   0.3 |  0.01
Kspace  | 7.4773     | 9.0875     | 10.523     |  30.6 | 30.10
Neigh   | 0.083191   | 0.08331    | 0.083426   |   0.0 |  0.28
Comm    | 1.3119     | 1.3522     | 1.4025     |   2.3 |  4.48
Output  | 6.0871e-05 | 7.6452e-05 | 0.00023295 |   0.0 |  0.00
Modify  | 1.0634     | 1.0733     | 1.083      |   0.5 |  3.56
Other   |            | 0.1688     |            |       |  0.56

Nlocal:    131 ave 140 max 123 min
Histogram: 2 1 0 2 2 2 0 1 0 2
Nghost:    4214.25 ave 4254 max 4178 min
Histogram: 2 1 1 2 1 1 0 1 1 2
Neighs:    47670.2 ave 54566 max 44314 min
Histogram: 3 2 1 3 0 1 1 0 0 1

Total # of neighbors = 572042
Ave neighs/atom = 363.894
Ave special neighs/atom = 1.9084
Neighbor list builds = 42
Dangerous builds = 0
timestep 0.2
run ${Ninvtpre}
run 10000
PPPM initialization ...
  extracting TIP4P info from pair style
  using 12-bit tables for long-range coulomb (../kspace.cpp:321)
  G vector (1/distance) = 0.310401
  grid = 24 24 24
  stencil order = 5
  estimated absolute RMS force accuracy = 0.00365923
  estimated relative force accuracy = 1.10196e-05
  using double precision FFTs
  3d grid and FFT values/proc = 5415 1152
Per MPI rank memory allocation (min/avg/max) = 8.659 | 8.663 | 8.666 Mbytes
Step Density Temp Press TotEng 
 5030000    1.1527146    294.77821    -706.2819   -8437.9899 
 5040000    1.1527146    291.11204    1024.9471   -8467.1225 
Loop time of 30.8285 on 12 procs for 10000 steps with 1572 atoms

Performance: 5.605 ns/day, 4.282 hours/ns, 324.375 timesteps/s
93.4% CPU use with 12 MPI tasks x no OpenMP threads

MPI task timing breakdown:
Section |  min time  |  avg time  |  max time  |%varavg| %total
---------------------------------------------------------------
Pair    | 17.16      | 18.523     | 20.813     |  22.9 | 60.08
Bond    | 0.0035884  | 0.0040685  | 0.0043712  |   0.3 |  0.01
Kspace  | 7.2891     | 9.5407     | 10.907     |  31.5 | 30.95
Neigh   | 0.15658    | 0.15672    | 0.15686    |   0.0 |  0.51
Comm    | 1.3212     | 1.3595     | 1.3902     |   1.5 |  4.41
Output  | 6.1989e-05 | 7.7978e-05 | 0.00023681 |   0.0 |  0.00
Modify  | 1.0646     | 1.0765     | 1.0902     |   0.8 |  3.49
Other   |            | 0.1683     |            |       |  0.55

Nlocal:    131 ave 148 max 121 min
Histogram: 1 2 3 2 0 2 1 0 0 1
Nghost:    4227.42 ave 4275 max 4185 min
Histogram: 1 1 1 1 3 1 2 1 0 1
Neighs:    47709.4 ave 52885 max 42935 min
Histogram: 2 1 1 1 2 0 1 1 2 1

Total # of neighbors = 572513
Ave neighs/atom = 364.194
Ave special neighs/atom = 1.9084
Neighbor list builds = 79
Dangerous builds = 0
timestep 0.5
run ${Ninvtpre}
run 10000
PPPM initialization ...
  extracting TIP4P info from pair style
  using 12-bit tables for long-range coulomb (../kspace.cpp:321)
  G vector (1/distance) = 0.310401
  grid = 24 24 24
  stencil order = 5
  estimated absolute RMS force accuracy = 0.00365923
  estimated relative force accuracy = 1.10196e-05
  using double precision FFTs
  3d grid and FFT values/proc = 5415 1152
Per MPI rank memory allocation (min/avg/max) = 8.659 | 8.663 | 8.666 Mbytes
Step Density Temp Press TotEng 
 5040000    1.1527146    291.11204    1023.8393   -8467.1225 
 5050000    1.1527146      281.186    331.70924    -8464.448 
Loop time of 31.5555 on 12 procs for 10000 steps with 1572 atoms

Performance: 13.690 ns/day, 1.753 hours/ns, 316.902 timesteps/s
92.9% CPU use with 12 MPI tasks x no OpenMP threads

MPI task timing breakdown:
Section |  min time  |  avg time  |  max time  |%varavg| %total
---------------------------------------------------------------
Pair    | 16.936     | 18.666     | 21.269     |  24.0 | 59.15
Bond    | 0.0035441  | 0.0040654  | 0.0044776  |   0.3 |  0.01
Kspace  | 7.2711     | 9.8268     | 11.508     |  32.4 | 31.14
Neigh   | 0.40751    | 0.40805    | 0.40856    |   0.0 |  1.29
Comm    | 1.3335     | 1.3804     | 1.4171     |   2.2 |  4.37
Output  | 6.3032e-05 | 7.8585e-05 | 0.00023931 |   0.0 |  0.00
Modify  | 1.0887     | 1.1016     | 1.1138     |   0.6 |  3.49
Other   |            | 0.1686     |            |       |  0.53

Nlocal:    131 ave 147 max 107 min
Histogram: 1 0 0 1 0 4 2 0 3 1
Nghost:    4205.42 ave 4297 max 4128 min
Histogram: 2 0 0 2 3 3 0 0 1 1
Neighs:    47705.6 ave 55036 max 37526 min
Histogram: 1 0 1 2 0 2 1 3 0 2

Total # of neighbors = 572467
Ave neighs/atom = 364.165
Ave special neighs/atom = 1.9084
Neighbor list builds = 203
Dangerous builds = 0

unfix integrate
fix integrate all nvt temp ${Temp} ${Temp} 100.0
fix integrate all nvt temp 298.15 ${Temp} 100.0
fix integrate all nvt temp 298.15 298.15 100.0
# continuing the initialization with the final value of timestep
timestep ${tstep}
timestep 1

run ${Ninvt}
run 2500000
PPPM initialization ...
  extracting TIP4P info from pair style
  using 12-bit tables for long-range coulomb (../kspace.cpp:321)
  G vector (1/distance) = 0.310401
  grid = 24 24 24
  stencil order = 5
  estimated absolute RMS force accuracy = 0.00365923
  estimated relative force accuracy = 1.10196e-05
  using double precision FFTs
  3d grid and FFT values/proc = 5415 1152
Per MPI rank memory allocation (min/avg/max) = 8.659 | 8.663 | 8.666 Mbytes
Step Density Temp Press TotEng 
 5050000    1.1527146      281.186    325.75892    -8464.448 
 5100000    1.1527146    289.77103    264.40263   -8407.2842 
 5200000    1.1527146    311.53342   -184.01011   -8371.5392 
 5300000    1.1527146    293.08519    68.455999   -8428.6327 
 5400000    1.1527146    304.26691    -106.7997   -8377.3437 
 5500000    1.1527146    295.30211   -770.33127   -8359.0536 
 5600000    1.1527146    293.41737   -33.517593   -8505.7533 
 5700000    1.1527146    294.26821   -188.95946   -8509.8048 
 5800000    1.1527146    301.16598    441.37892   -8375.0561 
 5900000    1.1527146    305.74525     230.2356   -8311.3053 
 6000000    1.1527146    302.46349     122.8977   -8422.5206 
 6100000    1.1527146    304.07795    710.45881   -8375.3774 
 6200000    1.1527146    288.71151    -41.93966   -8409.7506 
 6300000    1.1527146    300.37875   -218.80121   -8376.5886 
 6400000    1.1527146    292.22022    744.34195   -8394.0117 
 6500000    1.1527146     316.6268    311.17617   -8342.8802 
 6600000    1.1527146    302.13392    552.47973   -8345.6903 
 6700000    1.1527146    285.37231    682.84892   -8470.9756 
 6800000    1.1527146    295.79379    -585.7255   -8417.3388 
 6900000    1.1527146    293.88332    235.44644   -8436.9578 
 7000000    1.1527146     295.1657   -683.77975   -8425.0886 
 7100000    1.1527146    304.58133    338.98754   -8380.2792 
 7200000    1.1527146    302.29568   -817.82209   -8385.8652 
 7300000    1.1527146    296.47074    522.97389   -8319.0865 
 7400000    1.1527146    296.59881   -595.51292   -8416.5612 
 7500000    1.1527146    296.05499    -688.4662   -8475.4566 
 7550000    1.1527146    293.89615    498.79063   -8422.9944 
Loop time of 7998.03 on 12 procs for 2500000 steps with 1572 atoms

Performance: 27.007 ns/day, 0.889 hours/ns, 312.577 timesteps/s
93.2% CPU use with 12 MPI tasks x no OpenMP threads

MPI task timing breakdown:
Section |  min time  |  avg time  |  max time  |%varavg| %total
---------------------------------------------------------------
Pair    | 4385.1     | 4706.1     | 4990.9     | 315.4 | 58.84
Bond    | 0.90359    | 1.0168     | 1.1399     |   6.1 |  0.01
Kspace  | 2127.6     | 2408.8     | 2725.2     | 436.5 | 30.12
Neigh   | 203.43     | 203.72     | 203.91     |   1.1 |  2.55
Comm    | 352.53     | 358.08     | 362.28     |  16.2 |  4.48
Output  | 0.11023    | 0.11052    | 0.11339    |   0.3 |  0.00
Modify  | 275.61     | 277.85     | 280.2      |   6.9 |  3.47
Other   |            | 42.34      |            |       |  0.53

Nlocal:    131 ave 141 max 119 min
Histogram: 2 1 0 0 0 3 1 3 1 1
Nghost:    4204.08 ave 4260 max 4167 min
Histogram: 3 0 3 1 0 2 1 0 1 1
Neighs:    47690.3 ave 54421 max 41059 min
Histogram: 1 0 1 2 2 3 1 0 1 1

Total # of neighbors = 572284
Ave neighs/atom = 364.048
Ave special neighs/atom = 1.9084
Neighbor list builds = 100599
Dangerous builds = 0

reset_timestep 0

#################### 2) Production in NVT ensemble #####################
# computing average total energy, pontential energy, temperature, and pressure over time
variable TotEn equal etotal
fix TEAve all ave/time ${Ne} ${Nr} ${Nf} v_TotEn file TotalE.dat
fix TEAve all ave/time 1 ${Nr} ${Nf} v_TotEn file TotalE.dat
fix TEAve all ave/time 1 100000 ${Nf} v_TotEn file TotalE.dat
fix TEAve all ave/time 1 100000 100000 v_TotEn file TotalE.dat

variable PotEn equal pe
fix PEAve all ave/time ${Ne} ${Nr} ${Nf} v_PotEn file PotenE.dat
fix PEAve all ave/time 1 ${Nr} ${Nf} v_PotEn file PotenE.dat
fix PEAve all ave/time 1 100000 ${Nf} v_PotEn file PotenE.dat
fix PEAve all ave/time 1 100000 100000 v_PotEn file PotenE.dat

compute T all temp
fix TempAve all ave/time ${Ne} ${Nr} ${Nf} c_T file temperature.dat
fix TempAve all ave/time 1 ${Nr} ${Nf} c_T file temperature.dat
fix TempAve all ave/time 1 100000 ${Nf} c_T file temperature.dat
fix TempAve all ave/time 1 100000 100000 c_T file temperature.dat

compute P all pressure T
fix PressAve all ave/time ${Ne} ${Nr} ${Nf} c_P file pressure.dat
fix PressAve all ave/time 1 ${Nr} ${Nf} c_P file pressure.dat
fix PressAve all ave/time 1 100000 ${Nf} c_P file pressure.dat
fix PressAve all ave/time 1 100000 100000 c_P file pressure.dat


# computing self-diffusion and Onsager coefficients using the OCTP plugin
compute positions all position
fix f1 all ordern diffusivity ${Ndiff} ${Nwrit} c_positions nb ${nb} nbe ${nbe}
fix f1 all ordern diffusivity 1000 ${Nwrit} c_positions nb ${nb} nbe ${nbe}
fix f1 all ordern diffusivity 1000 100000 c_positions nb ${nb} nbe ${nbe}
fix f1 all ordern diffusivity 1000 100000 c_positions nb 10 nbe ${nbe}
fix f1 all ordern diffusivity 1000 100000 c_positions nb 10 nbe 20


# computing shear and bulk viscosities  using the OCTP plugin
fix f2 all ordern viscosity ${Nvisc} ${Nwrit} c_P nb ${nb} nbe ${nbe}
fix f2 all ordern viscosity 5 ${Nwrit} c_P nb ${nb} nbe ${nbe}
fix f2 all ordern viscosity 5 100000 c_P nb ${nb} nbe ${nbe}
fix f2 all ordern viscosity 5 100000 c_P nb 10 nbe ${nbe}
fix f2 all ordern viscosity 5 100000 c_P nb 10 nbe 20


# computing thermal conductivity using the OCTP plugin
compute KE all ke/atom
compute PE all pe/atom
compute ST all stress/atom NULL virial
compute heatflux all heat/flux KE PE ST
fix f3 all ordern thermalconductivity ${Ncond} ${Nwrit} c_heatflux nb ${nb} nbe ${nbe}
fix f3 all ordern thermalconductivity 5 ${Nwrit} c_heatflux nb ${nb} nbe ${nbe}
fix f3 all ordern thermalconductivity 5 100000 c_heatflux nb ${nb} nbe ${nbe}
fix f3 all ordern thermalconductivity 5 100000 c_heatflux nb 10 nbe ${nbe}
fix f3 all ordern thermalconductivity 5 100000 c_heatflux nb 10 nbe 20


# computing the RDF for all group pairs
compute rdfs all rdf/ext Nbin ${binnum} Nwrite ${Nrdfw}
compute rdfs all rdf/ext Nbin 2000 Nwrite ${Nrdfw}
compute rdfs all rdf/ext Nbin 2000 Nwrite 1000
fix f4 all ave/time 1 1 ${Nrdfe} c_rdfs
fix f4 all ave/time 1 1 1000 c_rdfs

dump trjectory all xyz ${Nd} movie.xyz
dump trjectory all xyz 100000 movie.xyz
dump_modify trjectory element Ow H K Cl

run ${Nrun1}
run 250000
PPPM initialization ...
  extracting TIP4P info from pair style
  using 12-bit tables for long-range coulomb (../kspace.cpp:321)
  G vector (1/distance) = 0.310401
  grid = 24 24 24
  stencil order = 5
  estimated absolute RMS force accuracy = 0.00365923
  estimated relative force accuracy = 1.10196e-05
  using double precision FFTs
  3d grid and FFT values/proc = 5415 1152
Per MPI rank memory allocation (min/avg/max) = 14.31 | 14.31 | 14.32 Mbytes
Step Density Temp Press TotEng 
       0    1.1527146    293.89615    498.78957   -8422.9944 
  100000    1.1527146    298.33622     834.2551    -8408.962 
  200000    1.1527146    286.54216   -1118.9827    -8376.669 
  250000    1.1527146    309.37623    294.50134    -8334.865 
Loop time of 1249.75 on 12 procs for 250000 steps with 1572 atoms

Performance: 17.283 ns/day, 1.389 hours/ns, 200.040 timesteps/s
93.3% CPU use with 12 MPI tasks x no OpenMP threads

MPI task timing breakdown:
Section |  min time  |  avg time  |  max time  |%varavg| %total
---------------------------------------------------------------
Pair    | 701.02     | 759.48     | 805.72     | 143.4 | 60.77
Bond    | 3.3294     | 3.3817     | 3.4471     |   2.2 |  0.27
Kspace  | 306.7      | 352.81     | 411.06     | 210.7 | 28.23
Neigh   | 20.325     | 20.349     | 20.371     |   0.3 |  1.63
Comm    | 36.327     | 36.77      | 37.286     |   6.0 |  2.94
Output  | 0.069667   | 0.069837   | 0.070336   |   0.1 |  0.01
Modify  | 71.786     | 71.954     | 72.09      |   1.1 |  5.76
Other   |            | 4.932      |            |       |  0.39

Nlocal:    131 ave 143 max 117 min
Histogram: 1 0 1 0 4 2 1 0 1 2
Nghost:    4197.67 ave 4257 max 4109 min
Histogram: 1 0 0 2 1 2 1 2 1 2
Neighs:    47755.7 ave 52774 max 39514 min
Histogram: 1 0 1 2 0 0 3 2 0 3

Total # of neighbors = 573068
Ave neighs/atom = 364.547
Ave special neighs/atom = 1.9084
Neighbor list builds = 10048
Dangerous builds = 0
shell bash copy_files.sh dt_${tstep} 00.25Mstep
shell bash copy_files.sh dt_1 00.25Mstep

run ${Nrun1}
run 250000
PPPM initialization ...
  extracting TIP4P info from pair style
  using 12-bit tables for long-range coulomb (../kspace.cpp:321)
  G vector (1/distance) = 0.310401
  grid = 24 24 24
  stencil order = 5
  estimated absolute RMS force accuracy = 0.00365923
  estimated relative force accuracy = 1.10196e-05
  using double precision FFTs
  3d grid and FFT values/proc = 5415 1152
Per MPI rank memory allocation (min/avg/max) = 14.31 | 14.31 | 14.32 Mbytes
Step Density Temp Press TotEng 
  250000    1.1527146    309.37623    294.45122    -8334.865 
  300000    1.1527146    303.72204    166.45227   -8417.1538 
  400000    1.1527146    296.05058    5.2307174   -8429.0706 
  500000    1.1527146     297.2414   -34.755552   -8322.3656 
Loop time of 1260.38 on 12 procs for 250000 steps with 1572 atoms

Performance: 17.138 ns/day, 1.400 hours/ns, 198.352 timesteps/s
92.9% CPU use with 12 MPI tasks x no OpenMP threads

MPI task timing breakdown:
Section |  min time  |  avg time  |  max time  |%varavg| %total
---------------------------------------------------------------
Pair    | 691.15     | 757.93     | 816.5      | 166.8 | 60.13
Bond    | 3.31       | 3.3655     | 3.4428     |   2.7 |  0.27
Kspace  | 306.17     | 364.86     | 432.06     | 240.7 | 28.95
Neigh   | 20.401     | 20.428     | 20.446     |   0.3 |  1.62
Comm    | 36.257     | 36.826     | 37.287     |   5.6 |  2.92
Output  | 0.101      | 0.10146    | 0.10196    |   0.1 |  0.01
Modify  | 71.761     | 71.941     | 72.068     |   1.1 |  5.71
Other   |            | 4.936      |            |       |  0.39

Nlocal:    131 ave 145 max 116 min
Histogram: 1 2 0 1 0 3 0 4 0 1
Nghost:    4230.17 ave 4279 max 4197 min
Histogram: 2 1 2 1 2 1 1 1 0 1
Neighs:    47697.8 ave 52625 max 41664 min
Histogram: 2 0 0 2 1 1 1 2 2 1

Total # of neighbors = 572374
Ave neighs/atom = 364.106
Ave special neighs/atom = 1.9084
Neighbor list builds = 10063
Dangerous builds = 0
shell bash copy_files.sh dt_${tstep} 00.50Mstep
shell bash copy_files.sh dt_1 00.50Mstep

run ${Nrun1}
run 250000
PPPM initialization ...
  extracting TIP4P info from pair style
  using 12-bit tables for long-range coulomb (../kspace.cpp:321)
  G vector (1/distance) = 0.310401
  grid = 24 24 24
  stencil order = 5
  estimated absolute RMS force accuracy = 0.00365923
  estimated relative force accuracy = 1.10196e-05
  using double precision FFTs
  3d grid and FFT values/proc = 5415 1152
Per MPI rank memory allocation (min/avg/max) = 14.31 | 14.31 | 14.32 Mbytes
Step Density Temp Press TotEng 
  500000    1.1527146     297.2414   -34.793854   -8322.3656 
  600000    1.1527146    289.19139   -55.119853   -8401.2377 
  700000    1.1527146    304.45018    1300.9478   -8338.9395 
  750000    1.1527146    298.47008      978.696   -8363.6055 
Loop time of 1256.91 on 12 procs for 250000 steps with 1572 atoms

Performance: 17.185 ns/day, 1.397 hours/ns, 198.900 timesteps/s
93.0% CPU use with 12 MPI tasks x no OpenMP threads

MPI task timing breakdown:
Section |  min time  |  avg time  |  max time  |%varavg| %total
---------------------------------------------------------------
Pair    | 685.28     | 758.75     | 816.04     | 155.8 | 60.37
Bond    | 3.3127     | 3.3759     | 3.4489     |   2.4 |  0.27
Kspace  | 302.95     | 360.41     | 434.35     | 226.6 | 28.67
Neigh   | 20.41      | 20.439     | 20.457     |   0.3 |  1.63
Comm    | 36.241     | 36.809     | 37.333     |   6.0 |  2.93
Output  | 0.06816    | 0.06849    | 0.069061   |   0.1 |  0.01
Modify  | 71.954     | 72.125     | 72.283     |   1.1 |  5.74
Other   |            | 4.937      |            |       |  0.39

Nlocal:    131 ave 140 max 124 min
Histogram: 3 2 0 1 2 0 1 0 0 3
Nghost:    4227.17 ave 4260 max 4201 min
Histogram: 1 3 0 2 1 1 1 1 1 1
Neighs:    47714.2 ave 54835 max 44135 min
Histogram: 2 3 2 1 1 2 0 0 0 1

Total # of neighbors = 572570
Ave neighs/atom = 364.23
Ave special neighs/atom = 1.9084
Neighbor list builds = 10053
Dangerous builds = 0
shell bash copy_files.sh dt_${tstep} 00.75Mstep
shell bash copy_files.sh dt_1 00.75Mstep

run ${Nrun1}
run 250000
PPPM initialization ...
  extracting TIP4P info from pair style
  using 12-bit tables for long-range coulomb (../kspace.cpp:321)
  G vector (1/distance) = 0.310401
  grid = 24 24 24
  stencil order = 5
  estimated absolute RMS force accuracy = 0.00365923
  estimated relative force accuracy = 1.10196e-05
  using double precision FFTs
  3d grid and FFT values/proc = 5415 1152
Per MPI rank memory allocation (min/avg/max) = 14.31 | 14.31 | 14.32 Mbytes
Step Density Temp Press TotEng 
  750000    1.1527146    298.47008     978.8835   -8363.6055 
  800000    1.1527146    291.91517   -117.79205   -8353.6186 
  900000    1.1527146     297.2352    725.90034   -8426.9838 
 1000000    1.1527146    298.58965   -581.63924   -8375.6647 
Loop time of 1251.9 on 12 procs for 250000 steps with 1572 atoms

Performance: 17.254 ns/day, 1.391 hours/ns, 199.696 timesteps/s
93.3% CPU use with 12 MPI tasks x no OpenMP threads

MPI task timing breakdown:
Section |  min time  |  avg time  |  max time  |%varavg| %total
---------------------------------------------------------------
Pair    | 709.72     | 758.75     | 812.7      | 123.9 | 60.61
Bond    | 3.3437     | 3.3936     | 3.447      |   1.5 |  0.27
Kspace  | 301.88     | 355.65     | 404.41     | 181.0 | 28.41
Neigh   | 20.301     | 20.333     | 20.359     |   0.4 |  1.62
Comm    | 36.264     | 36.819     | 37.328     |   6.0 |  2.94
Output  | 0.1011     | 0.10162    | 0.10193    |   0.1 |  0.01
Modify  | 71.733     | 71.913     | 72.044     |   1.1 |  5.74
Other   |            | 4.936      |            |       |  0.39

Nlocal:    131 ave 142 max 122 min
Histogram: 2 0 2 2 1 1 0 2 1 1
Nghost:    4235.5 ave 4294 max 4171 min
Histogram: 1 2 1 1 1 0 0 3 2 1
Neighs:    47680.9 ave 56355 max 42442 min
Histogram: 2 1 2 3 1 1 0 1 0 1

Total # of neighbors = 572171
Ave neighs/atom = 363.976
Ave special neighs/atom = 1.9084
Neighbor list builds = 10085
Dangerous builds = 0
shell bash copy_files.sh dt_${tstep} 01.00Mstep
shell bash copy_files.sh dt_1 01.00Mstep

run ${Nrun1}
run 250000
PPPM initialization ...
  extracting TIP4P info from pair style
  using 12-bit tables for long-range coulomb (../kspace.cpp:321)
  G vector (1/distance) = 0.310401
  grid = 24 24 24
  stencil order = 5
  estimated absolute RMS force accuracy = 0.00365923
  estimated relative force accuracy = 1.10196e-05
  using double precision FFTs
  3d grid and FFT values/proc = 5415 1152
Per MPI rank memory allocation (min/avg/max) = 14.31 | 14.31 | 14.32 Mbytes
Step Density Temp Press TotEng 
 1000000    1.1527146    298.58965   -581.64448   -8375.6647 
 1100000    1.1527146    298.74326   -590.34606   -8403.6789 
 1200000    1.1527146    293.59843   -13.355254   -8385.2882 
 1250000    1.1527146    298.44557    -930.4805   -8463.5685 
Loop time of 1253.44 on 12 procs for 250000 steps with 1572 atoms

Performance: 17.233 ns/day, 1.393 hours/ns, 199.451 timesteps/s
93.2% CPU use with 12 MPI tasks x no OpenMP threads

MPI task timing breakdown:
Section |  min time  |  avg time  |  max time  |%varavg| %total
---------------------------------------------------------------
Pair    | 704.25     | 758.97     | 816        | 123.3 | 60.55
Bond    | 3.3399     | 3.4109     | 3.4906     |   2.8 |  0.27
Kspace  | 299.4      | 356.79     | 411.77     | 180.6 | 28.47
Neigh   | 20.373     | 20.391     | 20.407     |   0.2 |  1.63
Comm    | 36.242     | 36.719     | 37.245     |   5.8 |  2.93
Output  | 0.0676     | 0.068124   | 0.068711   |   0.1 |  0.01
Modify  | 71.971     | 72.129     | 72.264     |   0.9 |  5.75
Other   |            | 4.958      |            |       |  0.40

Nlocal:    131 ave 142 max 121 min
Histogram: 1 1 1 2 4 0 0 1 0 2
Nghost:    4202.33 ave 4295 max 4137 min
Histogram: 2 0 2 2 1 3 1 0 0 1
Neighs:    47698.6 ave 51598 max 43725 min
Histogram: 1 1 2 0 2 2 0 2 1 1

Total # of neighbors = 572383
Ave neighs/atom = 364.111
Ave special neighs/atom = 1.9084
Neighbor list builds = 10068
Dangerous builds = 0
shell bash copy_files.sh dt_${tstep} 01.25Mstep
shell bash copy_files.sh dt_1 01.25Mstep

run ${Nrun1}
run 250000
PPPM initialization ...
  extracting TIP4P info from pair style
  using 12-bit tables for long-range coulomb (../kspace.cpp:321)
  G vector (1/distance) = 0.310401
  grid = 24 24 24
  stencil order = 5
  estimated absolute RMS force accuracy = 0.00365923
  estimated relative force accuracy = 1.10196e-05
  using double precision FFTs
  3d grid and FFT values/proc = 5415 1152
Per MPI rank memory allocation (min/avg/max) = 14.31 | 14.31 | 14.32 Mbytes
Step Density Temp Press TotEng 
 1250000    1.1527146    298.44557   -930.26329   -8463.5685 
 1300000    1.1527146    299.22484    366.28308   -8442.4254 
 1400000    1.1527146    290.37449     401.6996   -8426.7599 
 1500000    1.1527146    303.53445    651.08267   -8417.3117 
Loop time of 1241.26 on 12 procs for 250000 steps with 1572 atoms

Performance: 17.402 ns/day, 1.379 hours/ns, 201.409 timesteps/s
93.6% CPU use with 12 MPI tasks x no OpenMP threads

MPI task timing breakdown:
Section |  min time  |  avg time  |  max time  |%varavg| %total
---------------------------------------------------------------
Pair    | 704.64     | 756.17     | 802.96     | 109.6 | 60.92
Bond    | 3.3583     | 3.4129     | 3.4836     |   2.4 |  0.27
Kspace  | 300.33     | 347.53     | 398.79     | 162.0 | 28.00
Neigh   | 20.236     | 20.264     | 20.289     |   0.4 |  1.63
Comm    | 36.339     | 36.813     | 37.326     |   5.5 |  2.97
Output  | 0.10095    | 0.10134    | 0.10198    |   0.1 |  0.01
Modify  | 71.834     | 72.017     | 72.15      |   1.2 |  5.80
Other   |            | 4.951      |            |       |  0.40

Nlocal:    131 ave 138 max 124 min
Histogram: 2 0 3 0 0 1 2 2 1 1
Nghost:    4216.67 ave 4235 max 4193 min
Histogram: 1 0 1 3 1 0 2 1 1 2
Neighs:    47681.8 ave 50832 max 42970 min
Histogram: 1 0 1 1 0 4 0 1 2 2

Total # of neighbors = 572181
Ave neighs/atom = 363.983
Ave special neighs/atom = 1.9084
Neighbor list builds = 10058
Dangerous builds = 0
shell bash copy_files.sh dt_${tstep} 01.50Mstep
shell bash copy_files.sh dt_1 01.50Mstep

run ${Nrun1}
run 250000
PPPM initialization ...
  extracting TIP4P info from pair style
  using 12-bit tables for long-range coulomb (../kspace.cpp:321)
  G vector (1/distance) = 0.310401
  grid = 24 24 24
  stencil order = 5
  estimated absolute RMS force accuracy = 0.00365923
  estimated relative force accuracy = 1.10196e-05
  using double precision FFTs
  3d grid and FFT values/proc = 5415 1152
Per MPI rank memory allocation (min/avg/max) = 14.31 | 14.31 | 14.32 Mbytes
Step Density Temp Press TotEng 
 1500000    1.1527146    303.53445    650.71336   -8417.3117 
 1600000    1.1527146    298.38946    967.86509   -8422.6715 
 1700000    1.1527146    304.97682    290.88619   -8367.1531 
 1750000    1.1527146    290.41282   -73.047969   -8405.7919 
Loop time of 1249.11 on 12 procs for 250000 steps with 1572 atoms

Performance: 17.292 ns/day, 1.388 hours/ns, 200.142 timesteps/s
93.2% CPU use with 12 MPI tasks x no OpenMP threads

MPI task timing breakdown:
Section |  min time  |  avg time  |  max time  |%varavg| %total
---------------------------------------------------------------
Pair    | 679.35     | 755.5      | 807.88     | 153.5 | 60.48
Bond    | 3.3106     | 3.3779     | 3.4349     |   2.0 |  0.27
Kspace  | 303.07     | 355.89     | 432.34     | 224.2 | 28.49
Neigh   | 20.386     | 20.409     | 20.427     |   0.3 |  1.63
Comm    | 36.235     | 36.773     | 37.242     |   5.9 |  2.94
Output  | 0.067487   | 0.067849   | 0.068316   |   0.1 |  0.01
Modify  | 71.966     | 72.136     | 72.291     |   1.2 |  5.77
Other   |            | 4.959      |            |       |  0.40

Nlocal:    131 ave 141 max 121 min
Histogram: 1 2 0 0 1 3 2 1 1 1
Nghost:    4189 ave 4243 max 4142 min
Histogram: 2 1 1 1 1 2 1 1 1 1
Neighs:    47690.8 ave 55536 max 41295 min
Histogram: 1 1 1 1 3 3 1 0 0 1

Total # of neighbors = 572290
Ave neighs/atom = 364.052
Ave special neighs/atom = 1.9084
Neighbor list builds = 10067
Dangerous builds = 0
shell bash copy_files.sh dt_${tstep} 01.75Mstep
shell bash copy_files.sh dt_1 01.75Mstep

run ${Nrun1}
run 250000
PPPM initialization ...
  extracting TIP4P info from pair style
  using 12-bit tables for long-range coulomb (../kspace.cpp:321)
  G vector (1/distance) = 0.310401
  grid = 24 24 24
  stencil order = 5
  estimated absolute RMS force accuracy = 0.00365923
  estimated relative force accuracy = 1.10196e-05
  using double precision FFTs
  3d grid and FFT values/proc = 5415 1152
Per MPI rank memory allocation (min/avg/max) = 14.31 | 14.31 | 14.32 Mbytes
Step Density Temp Press TotEng 
 1750000    1.1527146    290.41282   -73.289962   -8405.7919 
 1800000    1.1527146    294.40954    770.77506   -8471.9168 
 1900000    1.1527146    298.71414   -587.37402   -8412.6556 
 2000000    1.1527146    296.71739   -699.21809   -8405.7814 
Loop time of 1269.08 on 12 procs for 250000 steps with 1572 atoms

Performance: 17.020 ns/day, 1.410 hours/ns, 196.993 timesteps/s
92.6% CPU use with 12 MPI tasks x no OpenMP threads

MPI task timing breakdown:
Section |  min time  |  avg time  |  max time  |%varavg| %total
---------------------------------------------------------------
Pair    | 698.95     | 757.61     | 837.06     | 172.7 | 59.70
Bond    | 3.3141     | 3.3627     | 3.4307     |   2.0 |  0.26
Kspace  | 293.89     | 373.8      | 432.25     | 246.3 | 29.45
Neigh   | 20.43      | 20.453     | 20.476     |   0.3 |  1.61
Comm    | 36.296     | 36.8       | 37.292     |   6.0 |  2.90
Output  | 0.10041    | 0.10086    | 0.10149    |   0.1 |  0.01
Modify  | 71.812     | 72.019     | 72.172     |   1.2 |  5.67
Other   |            | 4.936      |            |       |  0.39

Nlocal:    131 ave 147 max 117 min
Histogram: 1 1 2 0 1 3 2 1 0 1
Nghost:    4216.58 ave 4284 max 4148 min
Histogram: 2 1 0 1 3 1 0 0 2 2
Neighs:    47710.4 ave 57057 max 39800 min
Histogram: 1 1 1 3 1 2 1 1 0 1

Total # of neighbors = 572525
Ave neighs/atom = 364.202
Ave special neighs/atom = 1.9084
Neighbor list builds = 10048
Dangerous builds = 0
shell bash copy_files.sh dt_${tstep} 02.00step
shell bash copy_files.sh dt_1 02.00step

run ${Nrun2}
run 1000000
PPPM initialization ...
  extracting TIP4P info from pair style
  using 12-bit tables for long-range coulomb (../kspace.cpp:321)
  G vector (1/distance) = 0.310401
  grid = 24 24 24
  stencil order = 5
  estimated absolute RMS force accuracy = 0.00365923
  estimated relative force accuracy = 1.10196e-05
  using double precision FFTs
  3d grid and FFT values/proc = 5415 1152
Per MPI rank memory allocation (min/avg/max) = 14.31 | 14.31 | 14.32 Mbytes
Step Density Temp Press TotEng 
 2000000    1.1527146    296.71739    -698.9782   -8405.7814 
 2100000    1.1527146    297.42731    259.20887    -8404.739 
 2200000    1.1527146    295.73431   -786.55234   -8457.0587 
 2300000    1.1527146    304.94542   -685.37837   -8425.8615 
 2400000    1.1527146    287.91539    926.82663   -8453.8768 
 2500000    1.1527146    287.39214   -258.18916   -8424.5681 
 2600000    1.1527146    301.46996   -293.34987   -8429.4797 
 2700000    1.1527146     300.0631   -162.22137   -8367.4342 
 2800000    1.1527146    300.93914   -68.995223   -8389.7726 
 2900000    1.1527146    304.33017   -1564.5386   -8364.1186 
 3000000    1.1527146    306.86273    415.26059   -8379.5827 
Loop time of 5002.39 on 12 procs for 1000000 steps with 1572 atoms

Performance: 17.272 ns/day, 1.390 hours/ns, 199.904 timesteps/s
93.3% CPU use with 12 MPI tasks x no OpenMP threads

MPI task timing breakdown:
Section |  min time  |  avg time  |  max time  |%varavg| %total
---------------------------------------------------------------
Pair    | 2826.1     | 3036.3     | 3238.9     | 262.8 | 60.70
Bond    | 13.374     | 13.582     | 13.816     |   4.1 |  0.27
Kspace  | 1213.5     | 1415.6     | 1624.6     | 385.8 | 28.30
Neigh   | 81.357     | 81.478     | 81.55      |   0.7 |  1.63
Comm    | 145.26     | 147.33     | 149.57     |  12.5 |  2.95
Output  | 0.33775    | 0.3385     | 0.33986    |   0.1 |  0.01
Modify  | 287.17     | 287.95     | 288.5      |   2.3 |  5.76
Other   |            | 19.86      |            |       |  0.40

Nlocal:    131 ave 145 max 122 min
Histogram: 2 1 1 3 2 1 0 0 1 1
Nghost:    4205.58 ave 4246 max 4155 min
Histogram: 1 0 1 2 1 2 0 2 2 1
Neighs:    47727 ave 51464 max 44071 min
Histogram: 2 2 1 0 0 2 1 1 2 1

Total # of neighbors = 572724
Ave neighs/atom = 364.328
Ave special neighs/atom = 1.9084
Neighbor list builds = 40302
Dangerous builds = 0
shell bash copy_files.sh dt_${tstep} 03.00Mstep
shell bash copy_files.sh dt_1 03.00Mstep

run ${Nrun2}
run 1000000
PPPM initialization ...
  extracting TIP4P info from pair style
  using 12-bit tables for long-range coulomb (../kspace.cpp:321)
  G vector (1/distance) = 0.310401
  grid = 24 24 24
  stencil order = 5
  estimated absolute RMS force accuracy = 0.00365923
  estimated relative force accuracy = 1.10196e-05
  using double precision FFTs
  3d grid and FFT values/proc = 5415 1152
Per MPI rank memory allocation (min/avg/max) = 14.31 | 14.31 | 14.32 Mbytes
Step Density Temp Press TotEng 
 3000000    1.1527146    306.86273    415.50874   -8379.5827 
 3100000    1.1527146    298.49048   -332.02978   -8414.2556 
 3200000    1.1527146    284.04892    181.20549   -8377.3072 
 3300000    1.1527146    290.55377    351.82838   -8430.0461 
 3400000    1.1527146    291.08294   -483.93861   -8447.0951 
 3500000    1.1527146    292.74714   -377.78679   -8387.9087 
 3600000    1.1527146    289.37999    -101.5028   -8426.8337 
 3700000    1.1527146    313.37371   -851.46783   -8383.7416 
 3800000    1.1527146    307.34592   -129.26343   -8377.4341 
 3900000    1.1527146    288.75582   -1187.7722   -8427.5583 
 4000000    1.1527146     293.3147   -595.18516   -8423.2189 
Loop time of 5023.25 on 12 procs for 1000000 steps with 1572 atoms

Performance: 17.200 ns/day, 1.395 hours/ns, 199.074 timesteps/s
93.2% CPU use with 12 MPI tasks x no OpenMP threads

MPI task timing breakdown:
Section |  min time  |  avg time  |  max time  |%varavg| %total
---------------------------------------------------------------
Pair    | 2820.3     | 3040.4     | 3228       | 253.6 | 60.53
Bond    | 13.385     | 13.59      | 13.829     |   4.1 |  0.27
Kspace  | 1242.3     | 1431.8     | 1653.5     | 370.5 | 28.50
Neigh   | 81.598     | 81.706     | 81.78      |   0.6 |  1.63
Comm    | 145.28     | 147.3      | 149.31     |  11.5 |  2.93
Output  | 0.33676    | 0.33717    | 0.3383     |   0.1 |  0.01
Modify  | 287.57     | 288.35     | 288.86     |   2.3 |  5.74
Other   |            | 19.81      |            |       |  0.39

Nlocal:    131 ave 152 max 113 min
Histogram: 2 0 1 2 2 1 2 1 0 1
Nghost:    4180.17 ave 4251 max 4114 min
Histogram: 2 2 2 0 0 1 1 1 0 3
Neighs:    47696.2 ave 53226 max 40282 min
Histogram: 2 0 0 1 1 2 2 1 1 2

Total # of neighbors = 572355
Ave neighs/atom = 364.094
Ave special neighs/atom = 1.9084
Neighbor list builds = 40337
Dangerous builds = 0
shell bash copy_files.sh dt_${tstep} 04.00Mstep
shell bash copy_files.sh dt_1 04.00Mstep

run ${Nrun2}
run 1000000
PPPM initialization ...
  extracting TIP4P info from pair style
  using 12-bit tables for long-range coulomb (../kspace.cpp:321)
  G vector (1/distance) = 0.310401
  grid = 24 24 24
  stencil order = 5
  estimated absolute RMS force accuracy = 0.00365923
  estimated relative force accuracy = 1.10196e-05
  using double precision FFTs
  3d grid and FFT values/proc = 5415 1152
Per MPI rank memory allocation (min/avg/max) = 14.31 | 14.31 | 14.32 Mbytes
Step Density Temp Press TotEng 
 4000000    1.1527146     293.3147   -595.16105   -8423.2189 
 4100000    1.1527146    303.51688   -988.96496   -8391.4925 
 4200000    1.1527146    300.66042    893.00522   -8416.2319 
 4300000    1.1527146    283.87983    68.968603   -8456.6111 
 4400000    1.1527146    300.73067     183.6178   -8435.4102 
 4500000    1.1527146    282.73447   -793.00397   -8530.6555 
 4600000    1.1527146    291.79322   -1472.6956   -8472.0933 
 4700000    1.1527146    304.17623     527.6719   -8404.5758 
 4800000    1.1527146    293.54804    351.03307   -8397.1869 
 4900000    1.1527146     295.5609   -182.30047   -8411.4585 
 5000000    1.1527146    300.86799     632.7158   -8354.3682 
Loop time of 4990.1 on 12 procs for 1000000 steps with 1572 atoms

Performance: 17.314 ns/day, 1.386 hours/ns, 200.397 timesteps/s
93.4% CPU use with 12 MPI tasks x no OpenMP threads

MPI task timing breakdown:
Section |  min time  |  avg time  |  max time  |%varavg| %total
---------------------------------------------------------------
Pair    | 2804.1     | 3030.3     | 3221.1     | 255.9 | 60.73
Bond    | 13.363     | 13.585     | 13.877     |   4.5 |  0.27
Kspace  | 1217.4     | 1408.8     | 1636.7     | 376.2 | 28.23
Neigh   | 81.52      | 81.63      | 81.697     |   0.6 |  1.64
Comm    | 145.16     | 147.24     | 149.24     |  11.1 |  2.95
Output  | 0.33697    | 0.33746    | 0.33864    |   0.1 |  0.01
Modify  | 287.67     | 288.34     | 288.85     |   2.2 |  5.78
Other   |            | 19.79      |            |       |  0.40

Nlocal:    131 ave 147 max 117 min
Histogram: 2 1 0 0 3 2 2 1 0 1
Nghost:    4213.67 ave 4288 max 4119 min
Histogram: 2 1 1 2 0 0 0 0 3 3
Neighs:    47689.8 ave 56038 max 42577 min
Histogram: 1 2 1 3 3 0 1 0 0 1

Total # of neighbors = 572278
Ave neighs/atom = 364.045
Ave special neighs/atom = 1.9084
Neighbor list builds = 40342
Dangerous builds = 0
shell bash copy_files.sh dt_${tstep} 05.00Mstep
shell bash copy_files.sh dt_1 05.00Mstep

run ${Nrun2}
run 1000000
PPPM initialization ...
  extracting TIP4P info from pair style
  using 12-bit tables for long-range coulomb (../kspace.cpp:321)
  G vector (1/distance) = 0.310401
  grid = 24 24 24
  stencil order = 5
  estimated absolute RMS force accuracy = 0.00365923
  estimated relative force accuracy = 1.10196e-05
  using double precision FFTs
  3d grid and FFT values/proc = 5415 1152
Per MPI rank memory allocation (min/avg/max) = 14.31 | 14.31 | 14.32 Mbytes
Step Density Temp Press TotEng 
 5000000    1.1527146    300.86799    632.68228   -8354.3682 
 5100000    1.1527146    287.97962   -746.20189   -8475.1988 
 5200000    1.1527146    294.69785   -50.332919   -8418.7571 
 5300000    1.1527146     310.0455    177.55923   -8309.2343 
 5400000    1.1527146    300.76618    828.74688    -8398.072 
 5500000    1.1527146    303.80047    189.00016    -8410.662 
 5600000    1.1527146    302.70392     722.6313   -8390.4862 
 5700000    1.1527146    307.15468   -422.12676   -8399.0836 
 5800000    1.1527146    297.97628   -127.92999   -8392.8246 
 5900000    1.1527146    290.51808    114.55873   -8394.8152 
 6000000    1.1527146    308.12008    164.62144   -8324.4792 
Loop time of 4985.08 on 12 procs for 1000000 steps with 1572 atoms

Performance: 17.332 ns/day, 1.385 hours/ns, 200.598 timesteps/s
93.5% CPU use with 12 MPI tasks x no OpenMP threads

MPI task timing breakdown:
Section |  min time  |  avg time  |  max time  |%varavg| %total
---------------------------------------------------------------
Pair    | 2823.7     | 3034.1     | 3207       | 219.0 | 60.86
Bond    | 13.386     | 13.626     | 13.933     |   4.7 |  0.27
Kspace  | 1226.1     | 1400.7     | 1612.8     | 323.5 | 28.10
Neigh   | 81.068     | 81.154     | 81.212     |   0.5 |  1.63
Comm    | 145.14     | 147.22     | 149.14     |  11.1 |  2.95
Output  | 0.33819    | 0.33902    | 0.34042    |   0.1 |  0.01
Modify  | 287.45     | 288.11     | 288.63     |   2.0 |  5.78
Other   |            | 19.8       |            |       |  0.40

Nlocal:    131 ave 148 max 120 min
Histogram: 1 0 2 5 1 1 1 0 0 1
Nghost:    4222.17 ave 4278 max 4156 min
Histogram: 1 0 1 1 4 0 2 1 0 2
Neighs:    47741.4 ave 56826 max 38332 min
Histogram: 1 0 1 2 1 2 4 0 0 1

Total # of neighbors = 572897
Ave neighs/atom = 364.438
Ave special neighs/atom = 1.9084
Neighbor list builds = 40253
Dangerous builds = 0
shell bash copy_files.sh dt_${tstep} 06.00Mstep
shell bash copy_files.sh dt_1 06.00Mstep

run ${Nrun2}
run 1000000
PPPM initialization ...
  extracting TIP4P info from pair style
  using 12-bit tables for long-range coulomb (../kspace.cpp:321)
  G vector (1/distance) = 0.310401
  grid = 24 24 24
  stencil order = 5
  estimated absolute RMS force accuracy = 0.00365923
  estimated relative force accuracy = 1.10196e-05
  using double precision FFTs
  3d grid and FFT values/proc = 5415 1152
Per MPI rank memory allocation (min/avg/max) = 14.31 | 14.31 | 14.32 Mbytes
Step Density Temp Press TotEng 
 6000000    1.1527146    308.12008    164.42587   -8324.4792 
 6100000    1.1527146    293.94673   -765.97432   -8396.3237 
 6200000    1.1527146    287.54147    188.60946   -8470.3948 
 6300000    1.1527146    299.60598    209.82568   -8417.0089 
 6400000    1.1527146    296.58453    585.32536   -8463.0525 
 6500000    1.1527146    311.72152     176.5393   -8351.6745 
 6600000    1.1527146    293.82559    13.465196   -8387.2165 
 6700000    1.1527146    290.36085   -560.10807    -8440.553 
 6800000    1.1527146    289.21442   -443.72047   -8421.3116 
 6900000    1.1527146    304.56244   -786.10365   -8434.3615 
 7000000    1.1527146    287.07696   -253.60211   -8408.3059 
Loop time of 5021.12 on 12 procs for 1000000 steps with 1572 atoms

Performance: 17.207 ns/day, 1.395 hours/ns, 199.159 timesteps/s
93.0% CPU use with 12 MPI tasks x no OpenMP threads

MPI task timing breakdown:
Section |  min time  |  avg time  |  max time  |%varavg| %total
---------------------------------------------------------------
Pair    | 2769.9     | 3027.5     | 3255.3     | 299.6 | 60.30
Bond    | 13.331     | 13.547     | 13.839     |   4.8 |  0.27
Kspace  | 1212.5     | 1441.9     | 1700.7     | 435.1 | 28.72
Neigh   | 81.7       | 81.805     | 81.873     |   0.6 |  1.63
Comm    | 145.13     | 147.22     | 149.22     |  11.6 |  2.93
Output  | 0.33606    | 0.33652    | 0.33758    |   0.1 |  0.01
Modify  | 288.26     | 288.96     | 289.57     |   2.2 |  5.75
Other   |            | 19.8       |            |       |  0.39

Nlocal:    131 ave 138 max 117 min
Histogram: 1 0 1 0 0 1 2 3 1 3
Nghost:    4222.08 ave 4281 max 4169 min
Histogram: 2 0 3 1 0 2 1 0 1 2
Neighs:    47672.4 ave 52309 max 40969 min
Histogram: 1 0 0 0 4 2 1 1 2 1

Total # of neighbors = 572069
Ave neighs/atom = 363.912
Ave special neighs/atom = 1.9084
Neighbor list builds = 40297
Dangerous builds = 0
shell bash copy_files.sh dt_${tstep} 07.00Mstep
shell bash copy_files.sh dt_1 07.00Mstep

run ${Nrun2}
run 1000000
PPPM initialization ...
  extracting TIP4P info from pair style
  using 12-bit tables for long-range coulomb (../kspace.cpp:321)
  G vector (1/distance) = 0.310401
  grid = 24 24 24
  stencil order = 5
  estimated absolute RMS force accuracy = 0.00365923
  estimated relative force accuracy = 1.10196e-05
  using double precision FFTs
  3d grid and FFT values/proc = 5415 1152
Per MPI rank memory allocation (min/avg/max) = 14.31 | 14.31 | 14.32 Mbytes
Step Density Temp Press TotEng 
 7000000    1.1527146    287.07696     -253.748   -8408.3059 
 7100000    1.1527146    309.56546   -441.58145   -8373.3888 
 7200000    1.1527146    300.70595    400.29251   -8409.1546 
 7300000    1.1527146    306.84326   -699.83308   -8372.4199 
 7400000    1.1527146    311.84536    108.50586   -8357.3636 
 7500000    1.1527146     298.6949    608.83576   -8388.6233 
 7600000    1.1527146    301.81183    1095.2907   -8346.0381 
 7700000    1.1527146    302.49089    402.89022   -8388.0444 
 7800000    1.1527146    291.02038     89.86059   -8495.1217 
 7900000    1.1527146    301.92116    -16.78507   -8397.6553 
 8000000    1.1527146    299.85744   -266.52052    -8473.056 
Loop time of 4996.93 on 12 procs for 1000000 steps with 1572 atoms

Performance: 17.291 ns/day, 1.388 hours/ns, 200.123 timesteps/s
93.3% CPU use with 12 MPI tasks x no OpenMP threads

MPI task timing breakdown:
Section |  min time  |  avg time  |  max time  |%varavg| %total
---------------------------------------------------------------
Pair    | 2814.2     | 3031.4     | 3239.3     | 260.7 | 60.66
Bond    | 13.266     | 13.51      | 13.872     |   5.1 |  0.27
Kspace  | 1206.7     | 1415.6     | 1631.8     | 382.0 | 28.33
Neigh   | 81.399     | 81.519     | 81.605     |   0.8 |  1.63
Comm    | 144.98     | 147.13     | 149.14     |  11.9 |  2.94
Output  | 0.33717    | 0.33813    | 0.34005    |   0.1 |  0.01
Modify  | 286.87     | 287.63     | 288.14     |   2.3 |  5.76
Other   |            | 19.78      |            |       |  0.40

Nlocal:    131 ave 139 max 121 min
Histogram: 2 0 0 0 2 2 1 4 0 1
Nghost:    4181.58 ave 4237 max 4116 min
Histogram: 2 0 0 1 1 3 1 2 0 2
Neighs:    47665.7 ave 53561 max 40490 min
Histogram: 2 0 0 0 3 1 3 1 1 1

Total # of neighbors = 571988
Ave neighs/atom = 363.86
Ave special neighs/atom = 1.9084
Neighbor list builds = 40260
Dangerous builds = 0
shell bash copy_files.sh dt_${tstep} 08.00Mstep
shell bash copy_files.sh dt_1 08.00Mstep

run ${Nrun2}
run 1000000
PPPM initialization ...
  extracting TIP4P info from pair style
  using 12-bit tables for long-range coulomb (../kspace.cpp:321)
  G vector (1/distance) = 0.310401
  grid = 24 24 24
  stencil order = 5
  estimated absolute RMS force accuracy = 0.00365923
  estimated relative force accuracy = 1.10196e-05
  using double precision FFTs
  3d grid and FFT values/proc = 5415 1152
Per MPI rank memory allocation (min/avg/max) = 14.31 | 14.31 | 14.32 Mbytes
Step Density Temp Press TotEng 
 8000000    1.1527146    299.85744   -266.75945    -8473.056 
 8100000    1.1527146     297.7893    445.55466   -8364.0096 
 8200000    1.1527146    297.42698   -91.715018    -8409.783 
 8300000    1.1527146    301.53254   -176.36111   -8366.7918 
 8400000    1.1527146    305.07382    598.90239   -8355.8032 
 8500000    1.1527146    287.63801   -484.14978   -8439.7612 
 8600000    1.1527146    300.07017    946.48461   -8401.3488 
 8700000    1.1527146    293.11476     413.7357   -8378.3971 
 8800000    1.1527146    287.86956   -119.24871   -8382.7479 
 8900000    1.1527146     302.7391   -1104.0254   -8354.0762 
 9000000    1.1527146    295.45831   -330.82383   -8409.7598 
Loop time of 4991.07 on 12 procs for 1000000 steps with 1572 atoms

Performance: 17.311 ns/day, 1.386 hours/ns, 200.358 timesteps/s
93.4% CPU use with 12 MPI tasks x no OpenMP threads

MPI task timing breakdown:
Section |  min time  |  avg time  |  max time  |%varavg| %total
---------------------------------------------------------------
Pair    | 2782.1     | 3036.9     | 3260.1     | 278.2 | 60.85
Bond    | 13.292     | 13.509     | 13.807     |   4.5 |  0.27
Kspace  | 1178.7     | 1403.9     | 1657.5     | 410.0 | 28.13
Neigh   | 81.423     | 81.537     | 81.631     |   0.8 |  1.63
Comm    | 145.11     | 147.32     | 149.32     |  12.3 |  2.95
Output  | 0.33869    | 0.33922    | 0.34028    |   0.1 |  0.01
Modify  | 287.19     | 287.87     | 288.35     |   2.2 |  5.77
Other   |            | 19.77      |            |       |  0.40

Nlocal:    131 ave 142 max 122 min
Histogram: 1 1 0 3 3 1 0 1 1 1
Nghost:    4205.17 ave 4266 max 4141 min
Histogram: 2 0 0 1 3 2 1 1 1 1
Neighs:    47696.7 ave 54345 max 43376 min
Histogram: 2 2 2 1 1 1 1 0 1 1

Total # of neighbors = 572360
Ave neighs/atom = 364.097
Ave special neighs/atom = 1.9084
Neighbor list builds = 40303
Dangerous builds = 0
shell bash copy_files.sh dt_${tstep} 09.00Mstep
shell bash copy_files.sh dt_1 09.00Mstep

run ${Nrun2}
run 1000000
PPPM initialization ...
  extracting TIP4P info from pair style
  using 12-bit tables for long-range coulomb (../kspace.cpp:321)
  G vector (1/distance) = 0.310401
  grid = 24 24 24
  stencil order = 5
  estimated absolute RMS force accuracy = 0.00365923
  estimated relative force accuracy = 1.10196e-05
  using double precision FFTs
  3d grid and FFT values/proc = 5415 1152
Per MPI rank memory allocation (min/avg/max) = 14.31 | 14.31 | 14.32 Mbytes
Step Density Temp Press TotEng 
 9000000    1.1527146    295.45831   -331.14443   -8409.7598 
 9100000    1.1527146    302.18287   -441.80165   -8382.3074 
 9200000    1.1527146    321.06102   -537.52942   -8388.9637 
 9300000    1.1527146    301.41708   -1085.5321   -8462.1651 
 9400000    1.1527146    287.78937    598.86384   -8438.2719 
 9500000    1.1527146    301.58334   -530.82591   -8401.7471 
 9600000    1.1527146    302.20539    241.40854   -8436.4759 
 9700000    1.1527146    301.70684   -314.57231   -8451.5345 
 9800000    1.1527146    293.51034     388.8469   -8390.6799 
 9900000    1.1527146    285.82753   -275.03577   -8419.0219 
10000000    1.1527146    297.93051    809.01541   -8395.9835 
Loop time of 5022.12 on 12 procs for 1000000 steps with 1572 atoms

Performance: 17.204 ns/day, 1.395 hours/ns, 199.119 timesteps/s
93.1% CPU use with 12 MPI tasks x no OpenMP threads

MPI task timing breakdown:
Section |  min time  |  avg time  |  max time  |%varavg| %total
---------------------------------------------------------------
Pair    | 2795.9     | 3031.8     | 3245.3     | 294.7 | 60.37
Bond    | 13.294     | 13.498     | 13.804     |   5.0 |  0.27
Kspace  | 1224.3     | 1439.6     | 1676.8     | 428.7 | 28.67
Neigh   | 81.686     | 81.791     | 81.852     |   0.6 |  1.63
Comm    | 144.99     | 147.23     | 149.17     |  12.0 |  2.93
Output  | 0.33737    | 0.33778    | 0.33868    |   0.1 |  0.01
Modify  | 287.35     | 288.04     | 288.55     |   2.1 |  5.74
Other   |            | 19.77      |            |       |  0.39

Nlocal:    131 ave 142 max 119 min
Histogram: 1 0 1 2 1 3 1 1 0 2
Nghost:    4190.83 ave 4218 max 4161 min
Histogram: 2 0 1 1 1 1 3 0 2 1
Neighs:    47731.8 ave 54507 max 42562 min
Histogram: 2 3 0 0 1 1 3 1 0 1

Total # of neighbors = 572781
Ave neighs/atom = 364.365
Ave special neighs/atom = 1.9084
Neighbor list builds = 40288
Dangerous builds = 0
shell bash copy_files.sh dt_${tstep} 10.00Mstep
shell bash copy_files.sh dt_1 10.00Mstep

run ${Nrun3}
run 2500000
PPPM initialization ...
  extracting TIP4P info from pair style
  using 12-bit tables for long-range coulomb (../kspace.cpp:321)
  G vector (1/distance) = 0.310401
  grid = 24 24 24
  stencil order = 5
  estimated absolute RMS force accuracy = 0.00365923
  estimated relative force accuracy = 1.10196e-05
  using double precision FFTs
  3d grid and FFT values/proc = 5415 1152
Per MPI rank memory allocation (min/avg/max) = 14.31 | 14.31 | 14.32 Mbytes
Step Density Temp Press TotEng 
10000000    1.1527146    297.93051    809.25368   -8395.9835 
10100000    1.1527146    297.33065   -906.81332   -8428.0043 
10200000    1.1527146     304.9858   -23.721752   -8375.1473 
10300000    1.1527146     290.8711   -698.51369   -8411.6466 
10400000    1.1527146    303.63679   -357.74972   -8404.0102 
10500000    1.1527146    299.99018    757.21002   -8451.3804 
10600000    1.1527146      307.348    -377.2603   -8343.5703 
10700000    1.1527146    304.53871    3.3561574    -8426.928 
10800000    1.1527146    295.17053   -436.30076   -8379.8587 
10900000    1.1527146    298.75318     649.3934   -8355.3993 
11000000    1.1527146    299.63382     403.2961   -8401.2909 
11100000    1.1527146    302.50489   -249.37931    -8410.825 
11200000    1.1527146    294.95055    302.76717   -8392.4866 
11300000    1.1527146    287.18363   -184.34081    -8446.647 
11400000    1.1527146    296.74521   -758.78248   -8424.7429 
11500000    1.1527146    283.11451     -274.101   -8461.1147 
11600000    1.1527146     290.9952    -288.1634   -8364.3776 
11700000    1.1527146    290.87515   -50.095052   -8384.4558 
11800000    1.1527146    298.23787    95.799165   -8454.4287 
11900000    1.1527146    298.45621    48.688007   -8390.6881 
12000000    1.1527146     308.0632    1252.0928    -8381.261 
12100000    1.1527146    301.57632    106.58093   -8385.4749 
12200000    1.1527146    300.25775   -999.07925    -8415.691 
12300000    1.1527146    303.09858     103.8134   -8406.6598 
12400000    1.1527146    294.58959    430.50966   -8403.0055 
12500000    1.1527146    291.15352    109.25077   -8437.8446 
Loop time of 12510 on 12 procs for 2500000 steps with 1572 atoms

Performance: 17.266 ns/day, 1.390 hours/ns, 199.840 timesteps/s
93.2% CPU use with 12 MPI tasks x no OpenMP threads

MPI task timing breakdown:
Section |  min time  |  avg time  |  max time  |%varavg| %total
---------------------------------------------------------------
Pair    | 6930.9     | 7564.2     | 8074.8     | 489.4 | 60.47
Bond    | 33.27      | 33.756     | 34.453     |   6.9 |  0.27
Kspace  | 3054.1     | 3568.6     | 4205.9     | 713.6 | 28.53
Neigh   | 203.99     | 204.26     | 204.43     |   1.1 |  1.63
Comm    | 363.12     | 368.21     | 372.74     |  17.2 |  2.94
Output  | 0.84449    | 0.84598    | 0.85037    |   0.2 |  0.01
Modify  | 718.82     | 720.61     | 721.99     |   3.7 |  5.76
Other   |            | 49.54      |            |       |  0.40

Nlocal:    131 ave 139 max 122 min
Histogram: 1 1 0 1 3 1 2 1 1 1
Nghost:    4176.75 ave 4216 max 4139 min
Histogram: 2 2 1 0 1 0 2 1 1 2
Neighs:    47705.7 ave 53551 max 42921 min
Histogram: 3 2 0 1 1 0 1 2 0 2

Total # of neighbors = 572468
Ave neighs/atom = 364.165
Ave special neighs/atom = 1.9084
Neighbor list builds = 100662
Dangerous builds = 0
shell bash copy_files.sh dt_${tstep} 12.50Mstep
shell bash copy_files.sh dt_1 12.50Mstep

run ${Nrun3}
run 2500000
PPPM initialization ...
  extracting TIP4P info from pair style
  using 12-bit tables for long-range coulomb (../kspace.cpp:321)
  G vector (1/distance) = 0.310401
  grid = 24 24 24
  stencil order = 5
  estimated absolute RMS force accuracy = 0.00365923
  estimated relative force accuracy = 1.10196e-05
  using double precision FFTs
  3d grid and FFT values/proc = 5415 1152
Per MPI rank memory allocation (min/avg/max) = 14.31 | 14.32 | 14.32 Mbytes
Step Density Temp Press TotEng 
12500000    1.1527146    291.15352    109.39719   -8437.8446 
12600000    1.1527146    297.67723    -447.9692   -8404.4483 
12700000    1.1527146    304.67786   -229.17885    -8349.472 
12800000    1.1527146    296.71357   -581.85304   -8466.8597 
12900000    1.1527146    302.22529    627.29538   -8425.6996 
13000000    1.1527146    305.15048    10.801985   -8434.8756 
13100000    1.1527146    287.29094    274.37488   -8499.7192 
13200000    1.1527146    303.43799     253.0573   -8364.1569 
13300000    1.1527146    307.77892   -391.90025   -8350.7989 
13400000    1.1527146    297.95424   -369.09138   -8456.7001 
13500000    1.1527146    295.80804   -670.48008   -8443.0285 
13600000    1.1527146    294.24774   -414.62521   -8468.5925 
13700000    1.1527146     301.3903   -733.83535   -8339.3832 
13800000    1.1527146    306.32717   -107.08789   -8365.5777 
13900000    1.1527146    302.23689   -936.51841   -8375.8715 
14000000    1.1527146    298.44164    -772.8001   -8428.8093 
14100000    1.1527146     308.8714   -449.53296   -8368.8608 
14200000    1.1527146    302.35735    509.81346   -8338.6851 
14300000    1.1527146    291.70542   -412.10607   -8460.0805 
14400000    1.1527146     294.4272   -70.537561   -8382.6769 
14500000    1.1527146    308.15872   -507.32632   -8355.9316 
14600000    1.1527146    299.69619   -598.07754   -8417.6658 
14700000    1.1527146    303.44918    -804.9125   -8414.1351 
14800000    1.1527146    292.45676    487.20299   -8499.5045 
14900000    1.1527146    294.91608   -307.65558   -8382.0344 
15000000    1.1527146    307.53906    438.34485    -8399.708 
Loop time of 12461.2 on 12 procs for 2500000 steps with 1572 atoms

Performance: 17.334 ns/day, 1.385 hours/ns, 200.623 timesteps/s
93.5% CPU use with 12 MPI tasks x no OpenMP threads

MPI task timing breakdown:
Section |  min time  |  avg time  |  max time  |%varavg| %total
---------------------------------------------------------------
Pair    | 7234.1     | 7585       | 7947.1     | 315.5 | 60.87
Bond    | 33.669     | 34.132     | 34.922     |   6.6 |  0.27
Kspace  | 3134       | 3500.5     | 3855.8     | 465.4 | 28.09
Neigh   | 203.15     | 203.44     | 203.66     |   1.1 |  1.63
Comm    | 363.2      | 368.07     | 373.83     |  19.4 |  2.95
Output  | 0.843      | 0.84447    | 0.84833    |   0.1 |  0.01
Modify  | 717.52     | 719.64     | 721.1      |   3.9 |  5.78
Other   |            | 49.56      |            |       |  0.40

Nlocal:    131 ave 145 max 120 min
Histogram: 2 0 2 2 1 1 2 0 1 1
Nghost:    4186.83 ave 4262 max 4100 min
Histogram: 2 0 0 1 3 1 1 0 3 1
Neighs:    47696.8 ave 52615 max 42692 min
Histogram: 1 1 0 2 1 2 3 1 0 1

Total # of neighbors = 572362
Ave neighs/atom = 364.098
Ave special neighs/atom = 1.9084
Neighbor list builds = 100754
Dangerous builds = 0
shell bash copy_files.sh dt_${tstep} 15.00Mstep
shell bash copy_files.sh dt_1 15.00Mstep

run ${Nrun3}
run 2500000
PPPM initialization ...
  extracting TIP4P info from pair style
  using 12-bit tables for long-range coulomb (../kspace.cpp:321)
  G vector (1/distance) = 0.310401
  grid = 24 24 24
  stencil order = 5
  estimated absolute RMS force accuracy = 0.00365923
  estimated relative force accuracy = 1.10196e-05
  using double precision FFTs
  3d grid and FFT values/proc = 5415 1152
Per MPI rank memory allocation (min/avg/max) = 14.31 | 14.32 | 14.32 Mbytes
Step Density Temp Press TotEng 
15000000    1.1527146    307.53906    438.20784    -8399.708 
15100000    1.1527146    299.63323    497.90599   -8414.3015 
15200000    1.1527146    301.80134      1175.34   -8447.2967 
15300000    1.1527146    303.85383    642.52726   -8302.5292 
15400000    1.1527146    307.65559    163.93354   -8323.4546 
15500000    1.1527146    298.63563     270.6691   -8441.3947 
15600000    1.1527146    307.43664   -127.72433   -8408.4756 
15700000    1.1527146    304.14305   -354.01577   -8382.4263 
15800000    1.1527146    301.26409    292.28699   -8443.0538 
15900000    1.1527146    295.32793   -646.92445   -8404.9088 
16000000    1.1527146    310.34075    237.57223   -8413.3489 
16100000    1.1527146    296.01962    193.19932   -8389.4583 
16200000    1.1527146    301.60356   -652.35986   -8411.0396 
16300000    1.1527146    297.34116     228.2923    -8415.788 
16400000    1.1527146    295.23367    218.23546   -8424.0585 
16500000    1.1527146    299.54533    128.32043   -8419.2182 
16600000    1.1527146     301.7629    163.94334   -8422.2554 
16700000    1.1527146    314.34487    229.59917   -8364.6309 
16800000    1.1527146    307.43317    622.33204   -8406.8266 
16900000    1.1527146    299.81692   -247.64104   -8429.6913 
17000000    1.1527146    306.22696    144.67394   -8400.1053 
17100000    1.1527146     282.7765    55.956615   -8490.6446 
17200000    1.1527146     292.2083    4.9693784   -8446.1512 
17300000    1.1527146    300.67527    57.691364   -8408.6225 
17400000    1.1527146     298.7939   -468.76626   -8375.5061 
17500000    1.1527146    290.44014   -485.54829   -8385.4215 
Loop time of 12486.3 on 12 procs for 2500000 steps with 1572 atoms

Performance: 17.299 ns/day, 1.387 hours/ns, 200.220 timesteps/s
93.4% CPU use with 12 MPI tasks x no OpenMP threads

MPI task timing breakdown:
Section |  min time  |  avg time  |  max time  |%varavg| %total
---------------------------------------------------------------
Pair    | 7069.4     | 7584.7     | 8027.8     | 374.5 | 60.74
Bond    | 33.359     | 34.027     | 34.585     |   6.1 |  0.27
Kspace  | 3078.1     | 3525.5     | 4044.2     | 550.5 | 28.24
Neigh   | 203.18     | 203.44     | 203.63     |   1.1 |  1.63
Comm    | 362.77     | 368.03     | 373.23     |  18.7 |  2.95
Output  | 0.84346    | 0.84473    | 0.8474     |   0.1 |  0.01
Modify  | 718.33     | 720.25     | 721.5      |   3.6 |  5.77
Other   |            | 49.47      |            |       |  0.40

Nlocal:    131 ave 142 max 120 min
Histogram: 2 0 2 0 2 1 1 2 0 2
Nghost:    4200.75 ave 4297 max 4117 min
Histogram: 2 0 1 3 1 1 1 1 1 1
Neighs:    47710.9 ave 56263 max 41533 min
Histogram: 2 1 0 4 0 1 2 1 0 1

Total # of neighbors = 572531
Ave neighs/atom = 364.205
Ave special neighs/atom = 1.9084
Neighbor list builds = 100620
Dangerous builds = 0
shell bash copy_files.sh dt_${tstep} 17.50Mstep
shell bash copy_files.sh dt_1 17.50Mstep

run ${Nrun3}
run 2500000
PPPM initialization ...
  extracting TIP4P info from pair style
  using 12-bit tables for long-range coulomb (../kspace.cpp:321)
  G vector (1/distance) = 0.310401
  grid = 24 24 24
  stencil order = 5
  estimated absolute RMS force accuracy = 0.00365923
  estimated relative force accuracy = 1.10196e-05
  using double precision FFTs
  3d grid and FFT values/proc = 5415 1152
Per MPI rank memory allocation (min/avg/max) = 14.31 | 14.32 | 14.32 Mbytes
Step Density Temp Press TotEng 
17500000    1.1527146    290.44014   -485.90342   -8385.4215 
17600000    1.1527146     300.8447    121.91005   -8481.3431 
17700000    1.1527146    303.70556    93.578023   -8380.1527 
17800000    1.1527146    293.29999    91.090815   -8445.0361 
17900000    1.1527146     295.8397    37.106014   -8386.2283 
18000000    1.1527146    279.26618     204.4538   -8416.3042 
18100000    1.1527146    312.17904    -408.2292    -8302.462 
18200000    1.1527146    297.38912    188.60656   -8472.3637 
18300000    1.1527146     289.6345   -608.02153   -8482.4624 
18400000    1.1527146    304.29942    17.853631   -8390.4893 
18500000    1.1527146    293.58102   -799.05428   -8423.8637 
18600000    1.1527146    297.30667    806.34391   -8396.2192 
18700000    1.1527146    305.29417     1003.671   -8358.2173 
18800000    1.1527146     298.4263    446.98182   -8406.7799 
18900000    1.1527146    291.12073    483.77343    -8384.557 
19000000    1.1527146    297.40476   -1342.7357   -8352.5392 
19100000    1.1527146     300.8868   -956.37069   -8483.7238 
19200000    1.1527146    309.80671   -21.937954   -8358.6474 
19300000    1.1527146     281.7202   -544.12721   -8501.0897 
19400000    1.1527146    298.38347    175.01996   -8405.6281 
19500000    1.1527146     320.3239    273.63621   -8343.3357 
19600000    1.1527146    301.50656   -584.44085    -8417.411 
19700000    1.1527146    295.38819    884.74576   -8445.7657 
19800000    1.1527146    301.73389    135.16669   -8322.0134 
19900000    1.1527146    288.24984   -226.69563   -8448.8827 
20000000    1.1527146    301.94031    100.39828   -8389.7535 
Loop time of 12517.2 on 12 procs for 2500000 steps with 1572 atoms

Performance: 17.256 ns/day, 1.391 hours/ns, 199.726 timesteps/s
93.3% CPU use with 12 MPI tasks x no OpenMP threads

MPI task timing breakdown:
Section |  min time  |  avg time  |  max time  |%varavg| %total
---------------------------------------------------------------
Pair    | 7028.1     | 7588.7     | 8030.5     | 387.7 | 60.63
Bond    | 33.344     | 33.889     | 34.508     |   6.2 |  0.27
Kspace  | 3107.1     | 3552.8     | 4110.9     | 567.7 | 28.38
Neigh   | 203.55     | 203.8      | 203.99     |   1.0 |  1.63
Comm    | 363.45     | 368.38     | 373.17     |  17.8 |  2.94
Output  | 0.84388    | 0.84479    | 0.84847    |   0.1 |  0.01
Modify  | 717.22     | 719.21     | 720.58     |   3.7 |  5.75
Other   |            | 49.46      |            |       |  0.40

Nlocal:    131 ave 140 max 117 min
Histogram: 1 1 0 1 2 0 0 4 1 2
Nghost:    4208.08 ave 4267 max 4168 min
Histogram: 4 0 2 0 2 0 0 2 1 1
Neighs:    47703.3 ave 54266 max 41632 min
Histogram: 2 0 0 1 5 2 0 0 0 2

Total # of neighbors = 572440
Ave neighs/atom = 364.148
Ave special neighs/atom = 1.9084
Neighbor list builds = 100693
Dangerous builds = 0
shell bash copy_files.sh dt_${tstep} 20.00Mstep
shell bash copy_files.sh dt_1 20.00Mstep

run ${Nrun4}
run 5000000
PPPM initialization ...
  extracting TIP4P info from pair style
  using 12-bit tables for long-range coulomb (../kspace.cpp:321)
  G vector (1/distance) = 0.310401
  grid = 24 24 24
  stencil order = 5
  estimated absolute RMS force accuracy = 0.00365923
  estimated relative force accuracy = 1.10196e-05
  using double precision FFTs
  3d grid and FFT values/proc = 5415 1152
Per MPI rank memory allocation (min/avg/max) = 14.31 | 14.32 | 14.32 Mbytes
Step Density Temp Press TotEng 
20000000    1.1527146    301.94031    100.62483   -8389.7535 
20100000    1.1527146    302.77933    426.71653   -8408.5296 
20200000    1.1527146    286.24412   -711.22481   -8442.1516 
20300000    1.1527146    291.77182    1044.9154   -8501.4608 
20400000    1.1527146    294.70646   -93.114293   -8400.0854 
20500000    1.1527146    290.80835   -1036.4234   -8403.2112 
20600000    1.1527146    304.71589   -449.62017    -8449.958 
20700000    1.1527146    286.84155   -20.069032   -8409.2398 
20800000    1.1527146    309.52709   -86.112559   -8403.8055 
20900000    1.1527146     302.0455   -282.00243   -8408.2417 
21000000    1.1527146    288.50958    -402.3044   -8405.0626 
21100000    1.1527146    303.98966   -170.53167   -8352.9975 
21200000    1.1527146    302.49649    590.37313   -8399.8906 
21300000    1.1527146    309.10049    454.22343   -8359.9823 
21400000    1.1527146    301.42035    232.58718   -8402.8721 
21500000    1.1527146    292.99387    -98.42311   -8405.9266 
21600000    1.1527146    284.80987    491.95476   -8438.5988 
21700000    1.1527146    300.32906   -183.16799   -8418.0704 
21800000    1.1527146    300.17263    253.87088   -8382.6015 
21900000    1.1527146    299.02804    11.304201   -8358.8187 
22000000    1.1527146    301.29215    229.85541   -8362.8416 
22100000    1.1527146     298.9203    876.80979   -8416.3874 
22200000    1.1527146    303.67374    540.44638   -8383.5232 
22300000    1.1527146    302.05739   -238.16429   -8422.7922 
22400000    1.1527146    296.13569    160.08225   -8434.4674 
22500000    1.1527146    302.19079   -633.71488   -8365.4637 
22600000    1.1527146    303.25829    948.53944   -8350.1224 
22700000    1.1527146    290.32866    503.77741    -8491.567 
22800000    1.1527146    315.43781    157.02938   -8322.9403 
22900000    1.1527146    293.80314   -1177.0445   -8432.2665 
23000000    1.1527146    299.24272   -267.20996   -8364.1718 
23100000    1.1527146    301.83528    -268.2201   -8370.3399 
23200000    1.1527146    300.19443    1524.5686   -8342.4471 
23300000    1.1527146    292.03506   -30.931737   -8435.3835 
23400000    1.1527146     302.1363   -394.66977   -8421.1462 
23500000    1.1527146    294.01462   -307.90738   -8471.7146 
23600000    1.1527146    304.68446    -485.8305   -8359.7914 
23700000    1.1527146    302.14103    576.86657   -8362.6999 
23800000    1.1527146    284.96255    321.81629   -8448.4804 
23900000    1.1527146    303.75592   -652.33183   -8414.1786 
24000000    1.1527146     291.4891    139.71027   -8501.1296 
24100000    1.1527146     313.4138    433.38601   -8329.8941 
24200000    1.1527146     293.9708    305.11063    -8389.779 
24300000    1.1527146    292.77086   -39.381211   -8488.6049 
24400000    1.1527146    298.67741   -141.27811   -8426.8962 
24500000    1.1527146    305.11557   -216.68908   -8362.9343 
24600000    1.1527146     301.3007    1099.3061   -8417.6255 
24700000    1.1527146    291.95425   -593.94102   -8455.3832 
24800000    1.1527146    304.53244     450.3957   -8367.3632 
24900000    1.1527146    289.41646   -522.98755   -8410.2567 
25000000    1.1527146    304.39024    37.428975   -8403.2949 
Loop time of 24856.2 on 12 procs for 5000000 steps with 1572 atoms

Performance: 17.380 ns/day, 1.381 hours/ns, 201.157 timesteps/s
93.6% CPU use with 12 MPI tasks x no OpenMP threads

MPI task timing breakdown:
Section |  min time  |  avg time  |  max time  |%varavg| %total
---------------------------------------------------------------
Pair    | 14068      | 15169      | 16131      | 532.4 | 61.03
Bond    | 67.109     | 67.923     | 69.144     |   8.5 |  0.27
Kspace  | 5965.8     | 6936.6     | 8045.1     | 789.2 | 27.91
Neigh   | 406.45     | 407.04     | 407.41     |   1.6 |  1.64
Comm    | 725.79     | 736.14     | 746.27     |  25.6 |  2.96
Output  | 1.6943     | 1.6959     | 1.7024     |   0.2 |  0.01
Modify  | 1435.7     | 1439.6     | 1442.5     |   5.4 |  5.79
Other   |            | 98.7       |            |       |  0.40

Nlocal:    131 ave 144 max 121 min
Histogram: 1 4 0 2 0 1 1 0 1 2
Nghost:    4171 ave 4220 max 4092 min
Histogram: 1 0 1 1 0 2 1 1 4 1
Neighs:    47689.4 ave 51051 max 43038 min
Histogram: 1 1 0 1 1 3 0 1 2 2

Total # of neighbors = 572273
Ave neighs/atom = 364.041
Ave special neighs/atom = 1.9084
Neighbor list builds = 201324
Dangerous builds = 0
shell bash copy_files.sh dt_${tstep} 25.00Mstep
shell bash copy_files.sh dt_1 25.00Mstep

run ${Nrun4}
run 5000000
PPPM initialization ...
  extracting TIP4P info from pair style
  using 12-bit tables for long-range coulomb (../kspace.cpp:321)
  G vector (1/distance) = 0.310401
  grid = 24 24 24
  stencil order = 5
  estimated absolute RMS force accuracy = 0.00365923
  estimated relative force accuracy = 1.10196e-05
  using double precision FFTs
  3d grid and FFT values/proc = 5415 1152
Per MPI rank memory allocation (min/avg/max) = 14.31 | 14.32 | 14.32 Mbytes
Step Density Temp Press TotEng 
25000000    1.1527146    304.39024    37.657076   -8403.2949 
25100000    1.1527146    298.21539    461.07591   -8367.5688 
25200000    1.1527146     292.2222    -256.2868   -8431.4942 
25300000    1.1527146    290.60772   -279.58255   -8444.1217 
25400000    1.1527146    300.26894   -161.75248   -8356.6847 
25500000    1.1527146    310.16307   -190.08802   -8412.6537 
25600000    1.1527146    303.89492    992.48769   -8382.1673 
25700000    1.1527146    302.48749    570.55128   -8357.9949 
25800000    1.1527146    296.63929    507.91988   -8400.2203 
25900000    1.1527146    278.76104    -449.7425   -8469.3646 
26000000    1.1527146    305.03991    431.53889   -8352.0317 
26100000    1.1527146    300.16136    767.76671   -8378.9315 
26200000    1.1527146    300.48187    759.48449   -8353.5986 
26300000    1.1527146    292.03829   -405.38964   -8435.8399 
26400000    1.1527146      284.632   -1299.6639   -8472.9691 
26500000    1.1527146    305.18092    716.68999   -8465.0025 
26600000    1.1527146    293.38464    487.12888   -8407.7806 
26700000    1.1527146     283.8345    493.64227   -8456.2236 
26800000    1.1527146    299.94476   -209.71863   -8366.4648 
26900000    1.1527146    295.68982    -103.4917   -8414.3551 
27000000    1.1527146    296.18214    13.407526   -8484.0093 
27100000    1.1527146    290.37051    7.8312954   -8485.8577 
27200000    1.1527146    289.50146    -122.5577   -8466.7123 
27300000    1.1527146    293.32876   -186.85882    -8423.093 
27400000    1.1527146    296.52454   -499.34499   -8453.2008 
27500000    1.1527146    302.63845    225.27142   -8483.9595 
27600000    1.1527146    300.90108   -321.01329   -8355.0312 
27700000    1.1527146    296.21114    963.67594    -8385.232 
27800000    1.1527146    284.22472   -34.553262   -8473.9606 
27900000    1.1527146    305.04753    76.730755   -8392.3534 
28000000    1.1527146    297.31675    332.75319   -8399.7056 
28100000    1.1527146    306.80717    192.25484   -8421.5567 
28200000    1.1527146    303.86513   -96.310206   -8449.0466 
28300000    1.1527146    298.51798    235.19867   -8410.0199 
28400000    1.1527146    314.62246    601.81606   -8395.4589 
28500000    1.1527146    287.69975    279.87231   -8445.1844 
28600000    1.1527146    297.80599   -18.081871   -8399.4986 
28700000    1.1527146    298.44707   -435.76523    -8465.625 
28800000    1.1527146    294.34503   -466.36084   -8397.1869 
28900000    1.1527146    302.09446    864.79207    -8457.852 
29000000    1.1527146    295.74066   -1069.6751   -8395.3227 
29100000    1.1527146    293.92154    659.48844   -8410.7737 
29200000    1.1527146    290.16233    480.97519   -8406.5857 
29300000    1.1527146    302.84329    488.16397   -8438.7159 
29400000    1.1527146    307.03395   -88.346639   -8383.3058 
29500000    1.1527146    308.41615      296.116   -8388.3821 
29600000    1.1527146    294.37166   -426.40624   -8429.6582 
29700000    1.1527146    303.12356   -1043.9523   -8452.8321 
29800000    1.1527146    296.22759   -237.18864   -8334.9483 
29900000    1.1527146    296.75769   -155.74198   -8435.2158 
30000000    1.1527146    290.62089    429.15242   -8447.0334 
Loop time of 24988.3 on 12 procs for 5000000 steps with 1572 atoms

Performance: 17.288 ns/day, 1.388 hours/ns, 200.094 timesteps/s
93.4% CPU use with 12 MPI tasks x no OpenMP threads

MPI task timing breakdown:
Section |  min time  |  avg time  |  max time  |%varavg| %total
---------------------------------------------------------------
Pair    | 14132      | 15142      | 15881      | 527.0 | 60.60
Bond    | 66.864     | 67.948     | 69.105     |   8.8 |  0.27
Kspace  | 6346.7     | 7092.9     | 8111.7     | 772.0 | 28.38
Neigh   | 407.1      | 407.67     | 408.03     |   1.5 |  1.63
Comm    | 726.23     | 736.53     | 746.33     |  25.0 |  2.95
Output  | 1.6923     | 1.695      | 1.6996     |   0.1 |  0.01
Modify  | 1436.8     | 1440.5     | 1443.3     |   5.2 |  5.76
Other   |            | 98.87      |            |       |  0.40

Nlocal:    131 ave 142 max 123 min
Histogram: 2 1 1 2 2 1 1 0 0 2
Nghost:    4192 ave 4246 max 4133 min
Histogram: 1 1 1 1 3 1 1 0 0 3
Neighs:    47693.5 ave 53324 max 42756 min
Histogram: 1 1 3 1 1 1 2 0 1 1

Total # of neighbors = 572322
Ave neighs/atom = 364.073
Ave special neighs/atom = 1.9084
Neighbor list builds = 201367
Dangerous builds = 0
shell bash copy_files.sh dt_${tstep} 30.00Mstep
shell bash copy_files.sh dt_1 30.00Mstep

run ${Nrun4}
run 5000000
PPPM initialization ...
  extracting TIP4P info from pair style
  using 12-bit tables for long-range coulomb (../kspace.cpp:321)
  G vector (1/distance) = 0.310401
  grid = 24 24 24
  stencil order = 5
  estimated absolute RMS force accuracy = 0.00365923
  estimated relative force accuracy = 1.10196e-05
  using double precision FFTs
  3d grid and FFT values/proc = 5415 1152
Per MPI rank memory allocation (min/avg/max) = 14.31 | 14.32 | 14.32 Mbytes
Step Density Temp Press TotEng 
30000000    1.1527146    290.62089    429.14444   -8447.0334 
30100000    1.1527146    286.16736   -303.43131   -8459.4151 
30200000    1.1527146    296.45711   -331.19671   -8424.1133 
30300000    1.1527146    299.78487   -177.58966   -8445.8502 
30400000    1.1527146     298.5227   -558.74542   -8434.8045 
30500000    1.1527146    288.84129   -352.80714   -8449.9335 
30600000    1.1527146      308.912    293.56388   -8362.0386 
30700000    1.1527146    299.18504    379.35136   -8445.7163 
30800000    1.1527146    300.98563   -773.49179    -8383.323 
30900000    1.1527146    298.81745   -273.46748   -8431.1479 
31000000    1.1527146    294.15076   -507.13792   -8429.6369 
31100000    1.1527146    299.10677    59.852346   -8452.4776 
31200000    1.1527146    282.75806   -348.72895    -8470.461 
31300000    1.1527146    294.48798    982.15251   -8410.5967 
31400000    1.1527146    303.70322     1104.316   -8383.6303 
31500000    1.1527146    297.53401    -449.5041   -8399.0129 
31600000    1.1527146    300.16965    707.45763   -8453.9136 
31700000    1.1527146     306.8677   -337.38412   -8427.7861 
31800000    1.1527146    283.73886   -192.12221   -8425.1099 
31900000    1.1527146    303.02011    -832.3445   -8363.9318 
32000000    1.1527146    287.88259    200.67743   -8387.7634 
32100000    1.1527146    302.23055    409.73789   -8370.7403 
32200000    1.1527146    299.32885   -322.29641   -8442.6731 
32300000    1.1527146    285.91321   -133.76478   -8429.2709 
32400000    1.1527146    305.91966    222.41765    -8421.104 
32500000    1.1527146    303.51315    454.50161   -8354.1014 
32600000    1.1527146    288.78318   -23.397327   -8415.1426 
32700000    1.1527146    293.91848   -248.13956   -8438.3572 
32800000    1.1527146    297.15721    111.81212    -8379.547 
32900000    1.1527146    299.22577    469.52554   -8453.4952 
33000000    1.1527146    304.02649   -432.41818   -8439.9358 
33100000    1.1527146    296.77893   -525.10964   -8386.8034 
33200000    1.1527146    291.15597   -650.86183   -8433.9983 
33300000    1.1527146    297.79765    434.99712    -8426.818 
33400000    1.1527146    298.68748   -302.11723   -8421.0368 
33500000    1.1527146    295.43401    328.11189   -8352.7536 
33600000    1.1527146    294.37895   -152.32767   -8387.2274 
33700000    1.1527146    300.06735    894.95757   -8379.9806 
