LAMMPS (16 Mar 2018)
####################################################
# Preprocessing Li2SO4 in water
#################### SETTING UP ####################
units real
dimension 3
newton on
boundary p p p
atom_style full

#################### VARIABLES ####################
variable Temp equal 298.15    # Temperature in K
variable Pres equal 1    # Pressure in atm.

variable RandomSeed equal 92 # The random seed for velocity
variable tstep equal 2 # timestep in fs

#################### NPT ####################
variable Ninptpre equal 10000 # Pre-initialize the NPT ensemble (very small timesteps)
variable Ninpt equal 5000000  # Initialize the NPT ensemble
variable Npnpt equal 5000000  # Production in the NPT ensemble (volume)

#################### NVT ####################
variable Ninvtpre equal 10000  # Pre-initialize the NVT ensemble (very small timesteps)
variable Ninvt equal 2500000   # Initialize the NVT ensemble 2.5Mstep
variable Nrun1 equal 250000  # production in the NVT ensemble (Transport properties)
variable Nrun2 equal 1000000  # production in the NVT ensemble (Transport properties)
variable Nrun3 equal 2500000  # production in the NVT ensemble (Transport properties)
variable Nrun4 equal 5000000  # production in the NVT ensemble (Transport properties)

variable Nf equal 100000      # Nfreq (fix ave/time and thermo)
variable Ne equal  1          # Nevery (fix ave/time)
variable Nr equal ${Nf}/${Ne} # Nrepeat (fix ave/time)
variable Nr equal 100000/${Ne} 
variable Nr equal 100000/1 
variable Nd equal ${Nf} 	  # Frequency of outputting positions of atoms in the NVT ensemble
variable Nd equal 100000 	  
variable NBR equal ${Npnpt}/100 # Block averaging for density (NPT)
variable NBR equal 5000000/100 

variable nb equal 10          # Number of blocks (fix ordern)
variable nbe equal 20         # Number of block elements (fix ordern)
variable Nvisc equal 5        # Nevery for viscosity (fix ordern: sample data at (Nvisc*2))
variable Ncond equal 5        # Nevery for Tconductivity (fix ordern: sample data at (Ncond*2))
variable Ndiff equal 1000     # Nevery for diffusivity (fix ordern: sample data at (Ndiff))
variable Nwrit equal 100000   # Nwrite for transport properties (fix ordern: write every (Nwrit))

variable Nrdfe equal 1000     # Nevery for RDF (fix ave/time)
variable Nrdfw equal 1000     # Nwrite for RDF (compute rdf/ext: write every (Nrdfw*Nrdfe))
variable binnum equal 2000    # Number of bins for RDF

#################### ATOM DEFINITION and FORCEFIELD ####################
read_data ./data.lmp                     # read the positions
  orthogonal box = (0 0 0) to (25.8482 25.8482 25.8482)
  2 by 2 by 3 MPI processor grid
  reading atoms ...
  1572 atoms
  scanning bonds ...
  2 = max bonds/atom
  scanning angles ...
  1 = max angles/atom
  reading bonds ...
  1000 bonds
  reading angles ...
  500 angles
  2 = max # of 1-2 neighbors
  1 = max # of 1-3 neighbors
  1 = max # of 1-4 neighbors
  2 = max # of special neighbors
include ./forcefield.data                # read the force field
#--------INTERMOLECULAR POTENTIAL -------------------#
# --------Developed for MadridT KCl + TIP4P/2005-----#

mass 1 15.9994	# Ow
mass 2 1.008	# Hw
mass 3 39.0983	# K
mass 4 35.453	# Cl


pair_style lj/cut/tip4p/long 1 2 1 1 0.1546 10.0
kspace_style pppm/tip4p 1.0e-5
pair_modify mix arithmetic tail yes # ATC and Lorentz-Berthelot combining rules

#-----------------Combinations----------------------------
# atomtype atomtype epsilon sigma

pair_coeff 1 1 0.185200 3.15890    # Ow-Ow
pair_coeff 1 2 0.000000 0.00000    # Ow-Hw
pair_coeff 1 3 0.334711 2.89540    # Ow-K
pair_coeff 1 4 0.014814 4.07631    # Ow-Cl

pair_coeff 2 2 0.000000 0.00000    # Hw-Hw
pair_coeff 2 3 0.000000 0.00000    # Hw-K
pair_coeff 2 4 0.000000 0.00000    # Hw-Cl

pair_coeff 3 3 0.474603 3.41700    # K-K
pair_coeff 3 4 0.334608 3.41700    # K-Cl

pair_coeff 4 4 0.018385 4.69906    # Cl-Cl

bond_style  harmonic
bond_coeff 1 2000 0.9572           # Ow-Hw

angle_style harmonic
angle_coeff 1 200 104.52           # H-Ow-H

#dihedral_style none
#improper_style none

set type 1 charge -1.1128          # O
  500 settings made for charge
set type 2 charge +0.5564          # OH
  1000 settings made for charge
set type 3 charge +0.7500          # K
  36 settings made for charge
set type 4 charge -0.7500          # Cl
  36 settings made for charge

#################### INITIALIZATION ####################
group wat type 1		# O water
500 atoms in group wat
group K type 3			# Potasium ion
36 atoms in group K
group Cl type 4			# Chlorine ion
36 atoms in group Cl

# neigbor lists
neighbor 2.0 bin
neigh_modify every 1 delay 0 check yes

# velocity-Verlet integrator
run_style verlet

# initializing velocities
velocity all create ${Temp} ${RandomSeed}
velocity all create 298.15 ${RandomSeed}
velocity all create 298.15 92

# rate of writing thermal properties to the log file
thermo_style custom step density temp press etotal
thermo_modify flush yes
thermo ${Nf}
thermo 100000

#################### 2) Initialize the NPT ensemble ####################
######### Go to the correct temperature now ant initiate that ##########
fix constrain all shake 1.0e-6 1000 0 b 1 a 1
  0 = # of size 2 clusters
  0 = # of size 3 clusters
  0 = # of size 4 clusters
  500 = # of frozen angles
fix integrate all npt temp ${Temp} ${Temp} 10.0 iso ${Pres} ${Pres} 100.0
fix integrate all npt temp 298.15 ${Temp} 10.0 iso ${Pres} ${Pres} 100.0
fix integrate all npt temp 298.15 298.15 10.0 iso ${Pres} ${Pres} 100.0
fix integrate all npt temp 298.15 298.15 10.0 iso 1 ${Pres} 100.0
fix integrate all npt temp 298.15 298.15 10.0 iso 1 1 100.0


# Initializing the whole system with very small timesteps in the NPT ensemble
timestep 0.001
run ${Ninptpre}
run 10000
PPPM initialization ...
  extracting TIP4P info from pair style
  using 12-bit tables for long-range coulomb (../kspace.cpp:321)
  G vector (1/distance) = 0.309797
  grid = 24 24 24
  stencil order = 5
  estimated absolute RMS force accuracy = 0.00375155
  estimated relative force accuracy = 1.12977e-05
  using double precision FFTs
  3d grid and FFT values/proc = 5415 1152
Neighbor list info ...
  update every 1 steps, delay 0 steps, check yes
  max neighbors/atom: 2000, page size: 100000
  master list distance cutoff = 12.3092
  ghost atom cutoff = 12.3092
  binsize = 6.1546, bins = 5 5 5
  1 neighbor lists, perpetual/occasional/extra = 1 0 0
  (1) pair lj/cut/tip4p/long, perpetual
      attributes: half, newton on
      pair build: half/bin/newton
      stencil: half/bin/3d/newton
      bin: standard
Per MPI rank memory allocation (min/avg/max) = 8.286 | 8.289 | 8.293 Mbytes
Step Density Temp Press TotEng 
       0    1.1241608    437.34234    521450.98    2311.9202 
   10000    1.0218562    1128.9863    14553.846    376.91592 
Loop time of 39.4921 on 12 procs for 10000 steps with 1572 atoms

Performance: 0.022 ns/day, 1097.003 hours/ns, 253.215 timesteps/s
94.1% CPU use with 12 MPI tasks x no OpenMP threads

MPI task timing breakdown:
Section |  min time  |  avg time  |  max time  |%varavg| %total
---------------------------------------------------------------
Pair    | 21.55      | 23.339     | 26.059     |  30.0 | 59.10
Bond    | 0.0057985  | 0.0064781  | 0.0081792  |   0.8 |  0.02
Kspace  | 7.1938     | 9.9077     | 11.706     |  46.1 | 25.09
Neigh   | 0.0017911  | 0.0017963  | 0.001799   |   0.0 |  0.00
Comm    | 1.2495     | 1.2814     | 1.3305     |   1.9 |  3.24
Output  | 5.8502e-05 | 7.9141e-05 | 0.00029175 |   0.0 |  0.00
Modify  | 4.4481     | 4.7237     | 4.7766     |   3.9 | 11.96
Other   |            | 0.232      |            |       |  0.59

Nlocal:    131 ave 140 max 124 min
Histogram: 1 3 1 1 1 1 1 1 1 1
Nghost:    4116.75 ave 4171 max 4027 min
Histogram: 2 2 0 0 0 0 0 1 5 2
Neighs:    43926.4 ave 48408 max 40542 min
Histogram: 2 1 1 2 2 1 0 1 1 1

Total # of neighbors = 527117
Ave neighs/atom = 335.316
Ave special neighs/atom = 1.9084
Neighbor list builds = 1
Dangerous builds = 0
timestep 0.01
run ${Ninptpre}
run 10000
PPPM initialization ...
  extracting TIP4P info from pair style
  using 12-bit tables for long-range coulomb (../kspace.cpp:321)
  G vector (1/distance) = 0.310445
  grid = 25 25 25
  stencil order = 5
  estimated absolute RMS force accuracy = 0.00343538
  estimated relative force accuracy = 1.03455e-05
  using double precision FFTs
  3d grid and FFT values/proc = 6400 1875
Per MPI rank memory allocation (min/avg/max) = 8.324 | 8.349 | 8.395 Mbytes
Step Density Temp Press TotEng 
   10000    1.0218562    1128.9863    1441102.4    376.90403 
   20000    1.1575871    297.95029   -1542.5176   -7238.2533 
Loop time of 41.6454 on 12 procs for 10000 steps with 1572 atoms

Performance: 0.207 ns/day, 115.682 hours/ns, 240.123 timesteps/s
91.2% CPU use with 12 MPI tasks x no OpenMP threads

MPI task timing breakdown:
Section |  min time  |  avg time  |  max time  |%varavg| %total
---------------------------------------------------------------
Pair    | 21.1       | 22.576     | 25.2       |  25.1 | 54.21
Bond    | 0.0058948  | 0.0068474  | 0.0092807  |   1.2 |  0.02
Kspace  | 8.2043     | 10.829     | 12.325     |  36.3 | 26.00
Neigh   | 0.015803   | 0.015857   | 0.015896   |   0.0 |  0.04
Comm    | 1.2487     | 1.2769     | 1.3273     |   2.0 |  3.07
Output  | 6.2257e-05 | 7.799e-05  | 0.00024103 |   0.0 |  0.00
Modify  | 4.6447     | 5.1462     | 6.7909     |  22.4 | 12.36
Other   |            | 1.795      |            |       |  4.31

Nlocal:    131 ave 137 max 125 min
Histogram: 2 2 0 1 0 3 0 1 0 3
Nghost:    4246.83 ave 4317 max 4179 min
Histogram: 1 3 0 0 3 1 0 1 2 1
Neighs:    47168.3 ave 50709 max 42536 min
Histogram: 1 0 0 3 3 0 0 2 0 3

Total # of neighbors = 566020
Ave neighs/atom = 360.064
Ave special neighs/atom = 1.9084
Neighbor list builds = 9
Dangerous builds = 0
timestep 0.1
run ${Ninptpre}
run 10000
PPPM initialization ...
  extracting TIP4P info from pair style
  using 12-bit tables for long-range coulomb (../kspace.cpp:321)
  G vector (1/distance) = 0.310502
  grid = 24 24 24
  stencil order = 5
  estimated absolute RMS force accuracy = 0.00364393
  estimated relative force accuracy = 1.09736e-05
  using double precision FFTs
  3d grid and FFT values/proc = 5415 1152
Per MPI rank memory allocation (min/avg/max) = 8.286 | 8.29 | 8.293 Mbytes
Step Density Temp Press TotEng 
   20000    1.1575871    297.95029   -29176.173   -7238.2639 
   30000    1.1945968    308.44212    1265.1381   -8313.7748 
Loop time of 43.088 on 12 procs for 10000 steps with 1572 atoms

Performance: 2.005 ns/day, 11.969 hours/ns, 232.083 timesteps/s
94.2% CPU use with 12 MPI tasks x no OpenMP threads

MPI task timing breakdown:
Section |  min time  |  avg time  |  max time  |%varavg| %total
---------------------------------------------------------------
Pair    | 24.086     | 26.505     | 29.023     |  30.6 | 61.51
Bond    | 0.0059634  | 0.0067173  | 0.0079818  |   0.7 |  0.02
Kspace  | 7.6419     | 10.154     | 12.593     |  49.4 | 23.57
Neigh   | 0.083936   | 0.084144   | 0.084298   |   0.0 |  0.20
Comm    | 1.2937     | 1.3175     | 1.3397     |   1.3 |  3.06
Output  | 5.8904e-05 | 7.5355e-05 | 0.00023936 |   0.0 |  0.00
Modify  | 4.51       | 4.7801     | 4.8335     |   3.8 | 11.09
Other   |            | 0.2397     |            |       |  0.56

Nlocal:    131 ave 138 max 119 min
Histogram: 1 0 0 1 2 1 2 1 2 2
Nghost:    4344.25 ave 4386 max 4305 min
Histogram: 1 1 1 2 1 3 1 0 0 2
Neighs:    49213.4 ave 53176 max 44672 min
Histogram: 2 0 3 0 1 0 0 2 2 2

Total # of neighbors = 590561
Ave neighs/atom = 375.675
Ave special neighs/atom = 1.9084
Neighbor list builds = 43
Dangerous builds = 0
timestep 0.2
run ${Ninptpre}
run 10000
PPPM initialization ...
  extracting TIP4P info from pair style
  using 12-bit tables for long-range coulomb (../kspace.cpp:321)
  G vector (1/distance) = 0.311257
  grid = 24 24 24
  stencil order = 5
  estimated absolute RMS force accuracy = 0.00353187
  estimated relative force accuracy = 1.06361e-05
  using double precision FFTs
  3d grid and FFT values/proc = 5415 1152
Per MPI rank memory allocation (min/avg/max) = 8.287 | 8.291 | 8.294 Mbytes
Step Density Temp Press TotEng 
   30000    1.1945968    308.44212   -4301.9215   -8313.7762 
   40000    1.1506532    300.87037    162.01428   -8416.2911 
Loop time of 42.4716 on 12 procs for 10000 steps with 1572 atoms

Performance: 4.069 ns/day, 5.899 hours/ns, 235.452 timesteps/s
94.9% CPU use with 12 MPI tasks x no OpenMP threads

MPI task timing breakdown:
Section |  min time  |  avg time  |  max time  |%varavg| %total
---------------------------------------------------------------
Pair    | 24.499     | 26.34      | 28.216     |  20.9 | 62.02
Bond    | 0.0059764  | 0.0068437  | 0.0086061  |   0.8 |  0.02
Kspace  | 7.7389     | 9.6156     | 11.451     |  34.6 | 22.64
Neigh   | 0.17176    | 0.17213    | 0.17256    |   0.1 |  0.41
Comm    | 1.3102     | 1.3281     | 1.3425     |   0.9 |  3.13
Output  | 6.0961e-05 | 7.7493e-05 | 0.00024566 |   0.0 |  0.00
Modify  | 4.494      | 4.7704     | 4.8242     |   3.9 | 11.23
Other   |            | 0.2387     |            |       |  0.56

Nlocal:    131 ave 142 max 115 min
Histogram: 1 0 1 0 1 3 0 3 2 1
Nghost:    4231.5 ave 4289 max 4205 min
Histogram: 4 0 3 0 3 1 0 0 0 1
Neighs:    47805.9 ave 53978 max 41767 min
Histogram: 1 0 1 2 3 1 2 0 1 1

Total # of neighbors = 573671
Ave neighs/atom = 364.931
Ave special neighs/atom = 1.9084
Neighbor list builds = 88
Dangerous builds = 0
timestep 0.5
run ${Ninptpre}
run 10000
PPPM initialization ...
  extracting TIP4P info from pair style
  using 12-bit tables for long-range coulomb (../kspace.cpp:321)
  G vector (1/distance) = 0.310358
  grid = 24 24 24
  stencil order = 5
  estimated absolute RMS force accuracy = 0.00366574
  estimated relative force accuracy = 1.10393e-05
  using double precision FFTs
  3d grid and FFT values/proc = 5415 1152
Per MPI rank memory allocation (min/avg/max) = 8.287 | 8.291 | 8.294 Mbytes
Step Density Temp Press TotEng 
   40000    1.1506532    300.87037    3338.5628   -8416.2932 
   50000    1.1439424    291.60262   0.59439155   -8394.8937 
Loop time of 43.514 on 12 procs for 10000 steps with 1572 atoms

Performance: 9.928 ns/day, 2.417 hours/ns, 229.811 timesteps/s
93.9% CPU use with 12 MPI tasks x no OpenMP threads

MPI task timing breakdown:
Section |  min time  |  avg time  |  max time  |%varavg| %total
---------------------------------------------------------------
Pair    | 22.339     | 26.285     | 29.282     |  33.4 | 60.41
Bond    | 0.006091   | 0.0068249  | 0.0078104  |   0.6 |  0.02
Kspace  | 7.3866     | 10.386     | 14.33      |  53.3 | 23.87
Neigh   | 0.43769    | 0.4382     | 0.43908    |   0.1 |  1.01
Comm    | 1.3544     | 1.3706     | 1.3881     |   0.9 |  3.15
Output  | 6.1467e-05 | 7.6669e-05 | 0.00023437 |   0.0 |  0.00
Modify  | 4.5124     | 4.7884     | 4.8451     |   3.9 | 11.00
Other   |            | 0.2385     |            |       |  0.55

Nlocal:    131 ave 139 max 117 min
Histogram: 1 0 0 0 2 2 2 2 1 2
Nghost:    4205.42 ave 4233 max 4171 min
Histogram: 1 1 2 2 0 0 0 0 2 4
Neighs:    47400.9 ave 53172 max 39146 min
Histogram: 1 0 0 1 1 4 2 0 1 2

Total # of neighbors = 568811
Ave neighs/atom = 361.839
Ave special neighs/atom = 1.9084
Neighbor list builds = 222
Dangerous builds = 0
reset_timestep 0

# continuing the initialization with the final value of timestep
unfix integrate
fix integrate all npt temp ${Temp} ${Temp} 100.0 iso ${Pres} ${Pres} 1000.0
fix integrate all npt temp 298.15 ${Temp} 100.0 iso ${Pres} ${Pres} 1000.0
fix integrate all npt temp 298.15 298.15 100.0 iso ${Pres} ${Pres} 1000.0
fix integrate all npt temp 298.15 298.15 100.0 iso 1 ${Pres} 1000.0
fix integrate all npt temp 298.15 298.15 100.0 iso 1 1 1000.0

timestep ${tstep}
timestep 2


run ${Ninpt}
run 5000000
PPPM initialization ...
  extracting TIP4P info from pair style
  using 12-bit tables for long-range coulomb (../kspace.cpp:321)
  G vector (1/distance) = 0.310217
  grid = 24 24 24
  stencil order = 5
  estimated absolute RMS force accuracy = 0.00368709
  estimated relative force accuracy = 1.11036e-05
  using double precision FFTs
  3d grid and FFT values/proc = 5415 1152
Per MPI rank memory allocation (min/avg/max) = 8.287 | 8.425 | 8.665 Mbytes
Step Density Temp Press TotEng 
       0    1.1439424    291.60262    392.64853   -8394.8938 
  100000    1.1683275    296.58165    1469.2867   -8390.7667 
  200000    1.1541666      306.359    106.25343   -8395.3966 
  300000    1.1501596    301.98957   -317.44474   -8362.2426 
  400000    1.1752107    298.64573    1141.5225    -8462.451 
  500000    1.1437256    307.25701   -644.24073    -8411.772 
  600000    1.1883178    316.24194    817.46188   -8336.1797 
  700000    1.1358237    311.09516   -1033.1766   -8330.4702 
  800000    1.1577926    302.36793    483.52962   -8354.6301 
  900000    1.1362887    299.56848    -599.1684   -8400.6898 
 1000000    1.1432281    294.30744    156.46469   -8452.5585 
 1100000    1.1618527    290.14549   -1081.2358   -8419.6929 
 1200000    1.1483021    289.86977   -1089.5776   -8391.1719 
 1300000    1.1714309     305.0386    681.36537   -8417.3016 
 1400000    1.1555853    308.65949   -1.5641086   -8359.3792 
 1500000    1.1508773    302.54292   -679.68641   -8325.7591 
 1600000    1.1367256    300.68526    377.85975    -8435.755 
 1700000    1.1520884    291.27852    1012.0152   -8376.6566 
 1800000    1.1490446    296.21522   -154.33208   -8395.5319 
 1900000    1.1406403    290.15778   -279.58065    -8388.522 
 2000000    1.1574513    300.99105    410.25811   -8371.4515 
 2100000    1.1713597    290.43256    661.74237   -8414.9598 
 2200000    1.1537456    307.64856    234.44877   -8371.3728 
 2300000    1.1413009    299.08422     213.3039   -8409.1012 
 2400000    1.1651819      302.641    1255.7955   -8407.5563 
 2500000    1.1552155     292.0538    631.68709    -8393.127 
 2600000    1.1554034    300.37721    179.42376   -8373.0417 
 2700000    1.1507831    291.62713    831.76638   -8494.0539 
 2800000    1.1562791    294.00356    202.16529   -8402.1881 
 2900000    1.1526959    297.95392   -380.50301   -8403.8315 
 3000000    1.1384222     278.0345    325.66488   -8430.7019 
 3100000    1.1537875    304.05497   -553.01182   -8375.2381 
 3200000      1.14631    310.99513    70.540853   -8358.4646 
 3300000    1.1489584    306.30058    -491.2147   -8316.7152 
 3400000    1.1444039    288.49793    537.49784   -8462.0682 
 3500000    1.1384681    303.40877    19.996032    -8356.136 
 3600000    1.1572949    291.81164     367.4561    -8393.212 
 3700000     1.164397    283.00809   -707.82517   -8489.6323 
 3800000    1.1602466    303.21714   -109.62498    -8408.424 
 3900000    1.1599774     291.5475   -491.63545   -8515.4189 
 4000000    1.1589613    301.48475    160.83873   -8392.6043 
 4100000    1.1417731     307.6969   -505.63578    -8422.438 
 4200000    1.1571867    302.86089    535.07433   -8361.5951 
 4300000     1.158521      292.334    -207.4765   -8445.3532 
 4400000     1.155589    301.89823    602.78199   -8300.4559 
 4500000    1.1302086    287.02854   -586.51756   -8398.4405 
 4600000    1.1557997    299.70511   -649.92399   -8396.8112 
 4700000     1.157711    301.79873    441.28337   -8316.2419 
 4800000     1.143155    292.08959    113.79153   -8451.5941 
 4900000    1.1536942    310.11089   -856.56596   -8376.5354 
 5000000    1.1529552    293.10886    37.867977   -8463.8339 
Loop time of 22929.7 on 12 procs for 5000000 steps with 1572 atoms

Performance: 37.680 ns/day, 0.637 hours/ns, 218.057 timesteps/s
93.7% CPU use with 12 MPI tasks x no OpenMP threads

MPI task timing breakdown:
Section |  min time  |  avg time  |  max time  |%varavg| %total
---------------------------------------------------------------
Pair    | 12509      | 13443      | 14205      | 501.9 | 58.63
Bond    | 3.0723     | 3.4392     | 4.2323     |  16.0 |  0.01
Kspace  | 4613.8     | 5377       | 6309.4     | 794.9 | 23.45
Neigh   | 818.05     | 818.67     | 819.35     |   1.3 |  3.57
Comm    | 741.41     | 748.91     | 755.13     |  16.6 |  3.27
Output  | 0.0030505  | 0.0038278  | 0.012079   |   4.0 |  0.00
Modify  | 2282.4     | 2420.3     | 2447.3     |  86.0 | 10.56
Other   |            | 118.8      |            |       |  0.52

Nlocal:    131 ave 145 max 116 min
Histogram: 1 0 2 0 3 2 0 3 0 1
Nghost:    4176.25 ave 4219 max 4124 min
Histogram: 2 0 2 0 0 1 2 3 0 2
Neighs:    47686.3 ave 55552 max 42455 min
Histogram: 3 1 1 1 2 1 1 0 1 1

Total # of neighbors = 572236
Ave neighs/atom = 364.018
Ave special neighs/atom = 1.9084
Neighbor list builds = 401276
Dangerous builds = 0
reset_timestep 0


#################### 3) Obtaining average volume in NPT ######################
# Creating restart files
restart ${Nf} 1.restart 2.restart
restart 100000 1.restart 2.restart

# Getting the average volume of the system
variable Volume equal vol
fix VoluAve all ave/time 1 ${Npnpt} ${Npnpt} v_Volume file volume.dat
fix VoluAve all ave/time 1 5000000 ${Npnpt} v_Volume file volume.dat
fix VoluAve all ave/time 1 5000000 5000000 v_Volume file volume.dat

variable Dens equal density
fix DensAve all ave/time 1 ${NBR} ${NBR} v_Dens file density.dat
fix DensAve all ave/time 1 50000 ${NBR} v_Dens file density.dat
fix DensAve all ave/time 1 50000 50000 v_Dens file density.dat

compute T1 all temp
fix TempAve1 all ave/time 1 ${NBR} ${NBR} c_T1 file temperatureNPT.dat
fix TempAve1 all ave/time 1 50000 ${NBR} c_T1 file temperatureNPT.dat
fix TempAve1 all ave/time 1 50000 50000 c_T1 file temperatureNPT.dat

compute P1 all pressure T1
fix PressAve1 all ave/time 1 ${NBR} ${NBR} c_P1 file pressureNPT.dat
fix PressAve1 all ave/time 1 50000 ${NBR} c_P1 file pressureNPT.dat
fix PressAve1 all ave/time 1 50000 50000 c_P1 file pressureNPT.dat

run ${Npnpt}
run 5000000
PPPM initialization ...
  extracting TIP4P info from pair style
  using 12-bit tables for long-range coulomb (../kspace.cpp:321)
  G vector (1/distance) = 0.310406
  grid = 24 24 24
  stencil order = 5
  estimated absolute RMS force accuracy = 0.00365847
  estimated relative force accuracy = 1.10174e-05
  using double precision FFTs
  3d grid and FFT values/proc = 5415 1152
Per MPI rank memory allocation (min/avg/max) = 8.658 | 8.663 | 8.666 Mbytes
Step Density Temp Press TotEng 
       0    1.1529552    293.10886   -1.7195691   -8463.8336 
  100000    1.1575042    307.89487   -944.41073   -8437.8064 
  200000    1.1349449     290.5749   -1505.7743   -8410.6579 
  300000     1.163476    292.82596     182.6896   -8412.0321 
  400000    1.1542451    304.57092    299.95919   -8329.3797 
  500000    1.1508482    299.04095    -948.7343   -8369.6978 
  600000    1.1536005     295.1971    401.92549   -8398.7007 
  700000    1.1611339    290.79052   -797.24987   -8389.5621 
  800000    1.1507721    305.11306   -39.679283   -8303.2652 
  900000     1.174575    286.65576    471.55789   -8463.0678 
 1000000    1.1493646    302.12909    160.41306   -8429.7837 
 1100000    1.1437073    292.04016    642.01233   -8344.6911 
 1200000    1.1367687    304.96187   -871.53037   -8342.3439 
 1300000    1.1524566    298.48598   -359.75751   -8399.9809 
 1400000    1.1556025    290.77897     117.4296   -8408.8996 
 1500000    1.1516505    298.36169   -47.212897   -8337.9422 
 1600000     1.136234     298.6165   -721.50811   -8376.2782 
 1700000    1.1612485     304.2413    116.41817   -8395.1803 
 1800000    1.1460337    300.02991   -542.07979    -8363.081 
 1900000    1.1667324    294.59892   -1136.2277   -8458.5733 
 2000000    1.1443083    307.91492   -531.96783    -8328.443 
 2100000    1.1393779    295.86018   -829.37737   -8351.7101 
 2200000    1.1460554    291.46786   -370.44297   -8420.0169 
 2300000    1.1565926    297.94836    101.40845   -8342.9313 
 2400000    1.1570802     302.9491   -771.14789   -8437.8552 
 2500000    1.1472208    302.52701   -1396.4613   -8411.5072 
 2600000    1.1598659    305.68238    219.18598   -8358.0429 
 2700000    1.1661913    288.22001    574.40307   -8442.5098 
 2800000    1.1533227    298.85655    357.65569    -8411.897 
 2900000    1.1829776    293.96752    1018.8986   -8419.6384 
 3000000    1.1567408    301.53679   -422.35939   -8408.6647 
 3100000    1.1311981    296.60451   -1331.8765   -8382.2515 
 3200000    1.1472255    306.77166   -129.59114   -8355.0796 
 3300000     1.160723    302.39974    56.655653   -8339.0817 
 3400000    1.1549555     302.0801    708.97701   -8472.3626 
 3500000    1.1519134    310.66964   -631.65175   -8359.9006 
 3600000    1.1418368    302.75132   -878.77591   -8363.6898 
 3700000    1.1478878    288.36154   -146.95794   -8475.4734 
 3800000    1.1549748    292.51104   -60.300312   -8452.6977 
 3900000    1.1534689    298.98092    52.988937   -8396.9346 
 4000000    1.1375573    298.39262   -426.48965   -8444.4282 
 4100000    1.1550494    290.85142    243.30138   -8439.4145 
 4200000    1.1459773     306.7176   -863.85031   -8417.6115 
 4300000    1.1538295    287.88731    803.34171   -8325.5635 
 4400000    1.1361295    309.86384   -903.85881   -8307.9751 
 4500000    1.1395347    304.71847   -494.67173     -8355.18 
 4600000    1.1699209    308.38865    690.65751    -8369.372 
 4700000    1.1465922    308.83624    245.14886   -8336.9506 
 4800000    1.1544624    294.87401     169.8549   -8448.1873 
 4900000     1.147385    288.67571   -235.23936    -8427.552 
 5000000    1.1628494    299.31867    1785.5331   -8449.1956 
Loop time of 23232.1 on 12 procs for 5000000 steps with 1572 atoms

Performance: 37.190 ns/day, 0.645 hours/ns, 215.219 timesteps/s
93.5% CPU use with 12 MPI tasks x no OpenMP threads

MPI task timing breakdown:
Section |  min time  |  avg time  |  max time  |%varavg| %total
---------------------------------------------------------------
Pair    | 12486      | 13493      | 14391      | 564.1 | 58.08
Bond    | 3.1419     | 3.5944     | 4.3539     |  18.0 |  0.02
Kspace  | 4555.1     | 5453.3     | 6465       | 888.3 | 23.47
Neigh   | 819.69     | 820.27     | 820.79     |   1.2 |  3.53
Comm    | 742.96     | 750.34     | 757.33     |  16.4 |  3.23
Output  | 0.21795    | 0.21845    | 0.22337    |   0.3 |  0.00
Modify  | 2454       | 2592.6     | 2620.5     |  83.6 | 11.16
Other   |            | 118.8      |            |       |  0.51

Nlocal:    131 ave 140 max 121 min
Histogram: 1 2 1 1 1 1 0 1 2 2
Nghost:    4215.83 ave 4287 max 4141 min
Histogram: 2 1 0 2 0 2 1 1 1 2
Neighs:    48102 ave 51389 max 44084 min
Histogram: 1 1 0 0 4 1 1 2 0 2

Total # of neighbors = 577224
Ave neighs/atom = 367.191
Ave special neighs/atom = 1.9084
Neighbor list builds = 401406
Dangerous builds = 0

#################### 4) Initializing the NVT ensemble ####################
# scaling the size of the system to the average volume
variable sidesize equal (f_VoluAve^(1.0/3.0))    # get the volume
variable xlow equal xlo
variable ylow equal ylo
variable zlow equal zlo
variable xhig equal (xlo+${sidesize})
variable xhig equal (xlo+25.6313366385664)
variable yhig equal (ylo+${sidesize})
variable yhig equal (ylo+25.6313366385664)
variable zhig equal (zlo+${sidesize})
variable zhig equal (zlo+25.6313366385664)
change_box all x final ${xlow} ${xhig} y final ${ylow} ${yhig} z final ${zlow} ${zhig}
change_box all x final 0.144950183551106 ${xhig} y final ${ylow} ${yhig} z final ${zlow} ${zhig}
change_box all x final 0.144950183551106 25.7762868221175 y final ${ylow} ${yhig} z final ${zlow} ${zhig}
change_box all x final 0.144950183551106 25.7762868221175 y final 0.144950183551106 ${yhig} z final ${zlow} ${zhig}
change_box all x final 0.144950183551106 25.7762868221175 y final 0.144950183551106 25.7762868221175 z final ${zlow} ${zhig}
change_box all x final 0.144950183551106 25.7762868221175 y final 0.144950183551106 25.7762868221175 z final 0.144950183551106 ${zhig}
change_box all x final 0.144950183551106 25.7762868221175 y final 0.144950183551106 25.7762868221175 z final 0.144950183551106 25.7762868221175
  orthogonal box = (0.14495 0.14495 0.14495) to (25.7763 25.7033 25.7033)
  orthogonal box = (0.14495 0.14495 0.14495) to (25.7763 25.7763 25.7033)
  orthogonal box = (0.14495 0.14495 0.14495) to (25.7763 25.7763 25.7763)
unfix DensAve
unfix VoluAve
unfix TempAve1
unfix PressAve1

# changing the ensemble to NVT
unfix integrate
fix integrate all nvt temp ${Temp} ${Temp} 10.0
fix integrate all nvt temp 298.15 ${Temp} 10.0
fix integrate all nvt temp 298.15 298.15 10.0

timestep 0.001
run ${Ninvtpre}
run 10000
PPPM initialization ...
  extracting TIP4P info from pair style
  using 12-bit tables for long-range coulomb (../kspace.cpp:321)
  G vector (1/distance) = 0.310405
  grid = 24 24 24
  stencil order = 5
  estimated absolute RMS force accuracy = 0.00365851
  estimated relative force accuracy = 1.10175e-05
  using double precision FFTs
  3d grid and FFT values/proc = 5415 1152
Per MPI rank memory allocation (min/avg/max) = 8.659 | 8.663 | 8.666 Mbytes
Step Density Temp Press TotEng 
 5000000    1.1529415    299.31867   -9709.7474   -8499.0891 
 5010000    1.1529415    295.67666    1003.3283   -8440.6774 
Loop time of 29.695 on 12 procs for 10000 steps with 1572 atoms

Performance: 0.029 ns/day, 824.861 hours/ns, 336.757 timesteps/s
94.4% CPU use with 12 MPI tasks x no OpenMP threads

MPI task timing breakdown:
Section |  min time  |  avg time  |  max time  |%varavg| %total
---------------------------------------------------------------
Pair    | 16.691     | 18.336     | 20.184     |  24.6 | 61.75
Bond    | 0.0033456  | 0.0042099  | 0.0066252  |   1.2 |  0.01
Kspace  | 7.0205     | 8.7757     | 10.388     |  34.0 | 29.55
Neigh   | 0          | 0          | 0          |   0.0 |  0.00
Comm    | 1.2806     | 1.362      | 1.495      |   5.9 |  4.59
Output  | 5.9187e-05 | 7.4359e-05 | 0.00022379 |   0.0 |  0.00
Modify  | 1.0373     | 1.0492     | 1.0649     |   0.7 |  3.53
Other   |            | 0.1678     |            |       |  0.57

Nlocal:    131 ave 141 max 122 min
Histogram: 1 4 0 1 1 0 0 2 1 2
Nghost:    4199.08 ave 4270 max 4121 min
Histogram: 2 0 1 0 3 2 0 1 0 3
Neighs:    47693.7 ave 51506 max 43431 min
Histogram: 1 1 0 1 2 3 2 0 0 2

Total # of neighbors = 572324
Ave neighs/atom = 364.074
Ave special neighs/atom = 1.9084
Neighbor list builds = 0
Dangerous builds = 0
timestep 0.01
run ${Ninvtpre}
run 10000
PPPM initialization ...
  extracting TIP4P info from pair style
  using 12-bit tables for long-range coulomb (../kspace.cpp:321)
  G vector (1/distance) = 0.310405
  grid = 24 24 24
  stencil order = 5
  estimated absolute RMS force accuracy = 0.00365851
  estimated relative force accuracy = 1.10175e-05
  using double precision FFTs
  3d grid and FFT values/proc = 5415 1152
Per MPI rank memory allocation (min/avg/max) = 8.659 | 8.663 | 8.666 Mbytes
Step Density Temp Press TotEng 
 5010000    1.1529415    295.67666     1003.354   -8440.6774 
 5020000    1.1529415    282.28167    159.99464   -8447.5025 
Loop time of 29.7077 on 12 procs for 10000 steps with 1572 atoms

Performance: 0.291 ns/day, 82.521 hours/ns, 336.613 timesteps/s
94.1% CPU use with 12 MPI tasks x no OpenMP threads

MPI task timing breakdown:
Section |  min time  |  avg time  |  max time  |%varavg| %total
---------------------------------------------------------------
Pair    | 15.755     | 18.243     | 20.043     |  26.5 | 61.41
Bond    | 0.0035597  | 0.0042812  | 0.0054805  |   1.0 |  0.01
Kspace  | 7.2055     | 8.9387     | 11.33      |  36.5 | 30.09
Neigh   | 0.0077904  | 0.0078076  | 0.0078173  |   0.0 |  0.03
Comm    | 1.2248     | 1.276      | 1.3732     |   3.9 |  4.30
Output  | 6.5297e-05 | 8.0571e-05 | 0.00023328 |   0.0 |  0.00
Modify  | 1.0582     | 1.0735     | 1.0855     |   0.7 |  3.61
Other   |            | 0.1647     |            |       |  0.55

Nlocal:    131 ave 141 max 120 min
Histogram: 2 0 1 1 0 4 1 0 1 2
Nghost:    4177.75 ave 4276 max 4105 min
Histogram: 2 1 2 1 1 2 0 1 1 1
Neighs:    47666.3 ave 50273 max 41665 min
Histogram: 1 0 0 0 0 2 3 1 3 2

Total # of neighbors = 571996
Ave neighs/atom = 363.865
Ave special neighs/atom = 1.9084
Neighbor list builds = 4
Dangerous builds = 0
timestep 0.1
run ${Ninvtpre}
run 10000
PPPM initialization ...
  extracting TIP4P info from pair style
  using 12-bit tables for long-range coulomb (../kspace.cpp:321)
  G vector (1/distance) = 0.310405
  grid = 24 24 24
  stencil order = 5
  estimated absolute RMS force accuracy = 0.00365851
  estimated relative force accuracy = 1.10175e-05
  using double precision FFTs
  3d grid and FFT values/proc = 5415 1152
Per MPI rank memory allocation (min/avg/max) = 8.659 | 8.663 | 8.666 Mbytes
Step Density Temp Press TotEng 
 5020000    1.1529415    282.28167    159.62375   -8447.5025 
 5030000    1.1529415    302.90259    176.86016   -8408.8926 
Loop time of 30.5448 on 12 procs for 10000 steps with 1572 atoms

Performance: 2.829 ns/day, 8.485 hours/ns, 327.388 timesteps/s
93.2% CPU use with 12 MPI tasks x no OpenMP threads

MPI task timing breakdown:
Section |  min time  |  avg time  |  max time  |%varavg| %total
---------------------------------------------------------------
Pair    | 16.817     | 18.377     | 20.122     |  23.4 | 60.16
Bond    | 0.0037091  | 0.0042543  | 0.0052644  |   0.7 |  0.01
Kspace  | 7.7631     | 9.4907     | 11.009     |  31.8 | 31.07
Neigh   | 0.077049   | 0.077132   | 0.077214   |   0.0 |  0.25
Comm    | 1.3143     | 1.3618     | 1.4109     |   2.3 |  4.46
Output  | 6.0543e-05 | 7.6515e-05 | 0.00023481 |   0.0 |  0.00
Modify  | 1.0541     | 1.0655     | 1.0791     |   0.7 |  3.49
Other   |            | 0.1686     |            |       |  0.55

Nlocal:    131 ave 141 max 122 min
Histogram: 2 0 1 1 3 1 1 2 0 1
Nghost:    4200.5 ave 4240 max 4170 min
Histogram: 2 2 0 0 3 2 1 1 0 1
Neighs:    47709.8 ave 54087 max 41996 min
Histogram: 1 0 2 1 2 3 2 0 0 1

Total # of neighbors = 572517
Ave neighs/atom = 364.197
Ave special neighs/atom = 1.9084
Neighbor list builds = 39
Dangerous builds = 0
timestep 0.2
run ${Ninvtpre}
run 10000
PPPM initialization ...
  extracting TIP4P info from pair style
  using 12-bit tables for long-range coulomb (../kspace.cpp:321)
  G vector (1/distance) = 0.310405
  grid = 24 24 24
  stencil order = 5
  estimated absolute RMS force accuracy = 0.00365851
  estimated relative force accuracy = 1.10175e-05
  using double precision FFTs
  3d grid and FFT values/proc = 5415 1152
Per MPI rank memory allocation (min/avg/max) = 8.659 | 8.663 | 8.666 Mbytes
Step Density Temp Press TotEng 
 5030000    1.1529415    302.90259    176.86107   -8408.8926 
 5040000    1.1529415    286.17125   -438.94658   -8480.2996 
Loop time of 30.2676 on 12 procs for 10000 steps with 1572 atoms

Performance: 5.709 ns/day, 4.204 hours/ns, 330.386 timesteps/s
94.1% CPU use with 12 MPI tasks x no OpenMP threads

MPI task timing breakdown:
Section |  min time  |  avg time  |  max time  |%varavg| %total
---------------------------------------------------------------
Pair    | 17.155     | 18.442     | 20.079     |  22.6 | 60.93
Bond    | 0.0035331  | 0.0042928  | 0.005756   |   0.9 |  0.01
Kspace  | 7.4561     | 9.0766     | 10.336     |  31.5 | 29.99
Neigh   | 0.16215    | 0.16233    | 0.16259    |   0.0 |  0.54
Comm    | 1.3091     | 1.3529     | 1.4019     |   2.4 |  4.47
Output  | 5.9903e-05 | 7.5651e-05 | 0.00023469 |   0.0 |  0.00
Modify  | 1.0517     | 1.0618     | 1.0722     |   0.6 |  3.51
Other   |            | 0.1674     |            |       |  0.55

Nlocal:    131 ave 140 max 123 min
Histogram: 1 2 2 1 0 2 1 0 2 1
Nghost:    4220.33 ave 4282 max 4159 min
Histogram: 2 1 1 1 0 1 4 0 0 2
Neighs:    47716.9 ave 53107 max 44116 min
Histogram: 2 2 1 1 1 2 1 1 0 1

Total # of neighbors = 572603
Ave neighs/atom = 364.251
Ave special neighs/atom = 1.9084
Neighbor list builds = 83
Dangerous builds = 0
timestep 0.5
run ${Ninvtpre}
run 10000
PPPM initialization ...
  extracting TIP4P info from pair style
  using 12-bit tables for long-range coulomb (../kspace.cpp:321)
  G vector (1/distance) = 0.310405
  grid = 24 24 24
  stencil order = 5
  estimated absolute RMS force accuracy = 0.00365851
  estimated relative force accuracy = 1.10175e-05
  using double precision FFTs
  3d grid and FFT values/proc = 5415 1152
Per MPI rank memory allocation (min/avg/max) = 8.659 | 8.663 | 8.666 Mbytes
Step Density Temp Press TotEng 
 5040000    1.1529415    286.17125     -437.275   -8480.2996 
 5050000    1.1529415    305.83217    293.81387   -8397.3987 
Loop time of 31.184 on 12 procs for 10000 steps with 1572 atoms

Performance: 13.853 ns/day, 1.732 hours/ns, 320.677 timesteps/s
93.1% CPU use with 12 MPI tasks x no OpenMP threads

MPI task timing breakdown:
Section |  min time  |  avg time  |  max time  |%varavg| %total
---------------------------------------------------------------
Pair    | 17.457     | 18.602     | 20.491     |  21.5 | 59.65
Bond    | 0.0033199  | 0.004297   | 0.0053182  |   0.8 |  0.01
Kspace  | 7.655      | 9.5339     | 10.648     |  29.7 | 30.57
Neigh   | 0.40775    | 0.40829    | 0.40909    |   0.1 |  1.31
Comm    | 1.3482     | 1.3819     | 1.4444     |   2.4 |  4.43
Output  | 6.099e-05  | 7.7087e-05 | 0.00023709 |   0.0 |  0.00
Modify  | 1.0767     | 1.0819     | 1.0902     |   0.5 |  3.47
Other   |            | 0.1716     |            |       |  0.55

Nlocal:    131 ave 141 max 125 min
Histogram: 3 2 0 4 0 0 0 0 1 2
Nghost:    4214.42 ave 4272 max 4165 min
Histogram: 1 4 0 0 2 0 0 3 0 2
Neighs:    47704 ave 51168 max 44911 min
Histogram: 4 0 1 0 1 1 2 1 0 2

Total # of neighbors = 572448
Ave neighs/atom = 364.153
Ave special neighs/atom = 1.9084
Neighbor list builds = 205
Dangerous builds = 0

unfix integrate
fix integrate all nvt temp ${Temp} ${Temp} 100.0
fix integrate all nvt temp 298.15 ${Temp} 100.0
fix integrate all nvt temp 298.15 298.15 100.0
# continuing the initialization with the final value of timestep
timestep ${tstep}
timestep 2

run ${Ninvt}
run 2500000
PPPM initialization ...
  extracting TIP4P info from pair style
  using 12-bit tables for long-range coulomb (../kspace.cpp:321)
  G vector (1/distance) = 0.310405
  grid = 24 24 24
  stencil order = 5
  estimated absolute RMS force accuracy = 0.00365851
  estimated relative force accuracy = 1.10175e-05
  using double precision FFTs
  3d grid and FFT values/proc = 5415 1152
Per MPI rank memory allocation (min/avg/max) = 8.659 | 8.663 | 8.666 Mbytes
Step Density Temp Press TotEng 
 5050000    1.1529415    305.83217    284.46217   -8397.3987 
 5100000    1.1529415    307.76668    464.97981   -8346.5973 
 5200000    1.1529415     296.0432   -32.281021   -8392.5395 
 5300000    1.1529415    284.02576    -155.3576   -8424.6832 
 5400000    1.1529415    296.83722   -332.50624   -8375.0631 
 5500000    1.1529415     296.4904   -366.59227   -8406.7244 
 5600000    1.1529415    312.26373    847.67711   -8368.8824 
 5700000    1.1529415    302.85286    259.85411   -8372.8686 
 5800000    1.1529415    294.37565   -368.94725   -8355.2141 
 5900000    1.1529415    303.03872    45.248062   -8379.7311 
 6000000    1.1529415    305.08152   -1058.2775   -8402.0096 
 6100000    1.1529415    304.25487    316.14598   -8419.9385 
 6200000    1.1529415    287.90817   -368.52854   -8387.4168 
 6300000    1.1529415    297.65197   -555.14948   -8378.5389 
 6400000    1.1529415    300.79941    480.82147   -8331.4905 
 6500000    1.1529415    307.46187   -182.82267   -8364.6104 
 6600000    1.1529415    292.29074   -530.75427   -8438.3824 
 6700000    1.1529415    297.78482   -656.11172   -8393.5521 
 6800000    1.1529415    302.73162   -498.07008   -8385.9279 
 6900000    1.1529415    294.15817   -41.025806   -8384.8191 
 7000000    1.1529415    294.76146   -1088.4303   -8442.6217 
 7100000    1.1529415    291.35939    780.42977    -8388.605 
 7200000    1.1529415    295.15291    644.82628   -8436.6499 
 7300000    1.1529415     305.8508   -993.51338   -8311.8653 
 7400000    1.1529415    306.83182    153.66071   -8355.2042 
 7500000    1.1529415    296.58365    316.50036   -8409.5094 
 7550000    1.1529415    301.56897   -655.48223   -8418.0858 
Loop time of 8209.39 on 12 procs for 2500000 steps with 1572 atoms

Performance: 52.623 ns/day, 0.456 hours/ns, 304.529 timesteps/s
93.6% CPU use with 12 MPI tasks x no OpenMP threads

MPI task timing breakdown:
Section |  min time  |  avg time  |  max time  |%varavg| %total
---------------------------------------------------------------
Pair    | 4414.3     | 4752.4     | 5070.4     | 298.8 | 57.89
Bond    | 0.87166    | 1.0849     | 1.4196     |  14.8 |  0.01
Kspace  | 2031.6     | 2348.6     | 2681.4     | 422.5 | 28.61
Neigh   | 403.65     | 403.99     | 404.31     |   0.9 |  4.92
Comm    | 374.1      | 377.98     | 383.06     |  14.1 |  4.60
Output  | 0.11245    | 0.11273    | 0.1155     |   0.2 |  0.00
Modify  | 280.52     | 282.43     | 284.91     |   7.9 |  3.44
Other   |            | 42.81      |            |       |  0.52

Nlocal:    131 ave 143 max 117 min
Histogram: 1 0 0 3 3 1 0 1 1 2
Nghost:    4187.33 ave 4238 max 4148 min
Histogram: 2 1 2 0 3 1 0 1 0 2
Neighs:    47734.9 ave 53879 max 43754 min
Histogram: 2 2 2 2 0 0 1 1 1 1

Total # of neighbors = 572819
Ave neighs/atom = 364.389
Ave special neighs/atom = 1.9084
Neighbor list builds = 198500
Dangerous builds = 0

reset_timestep 0

#################### 2) Production in NVT ensemble #####################
# computing average total energy, pontential energy, temperature, and pressure over time
variable TotEn equal etotal
fix TEAve all ave/time ${Ne} ${Nr} ${Nf} v_TotEn file TotalE.dat
fix TEAve all ave/time 1 ${Nr} ${Nf} v_TotEn file TotalE.dat
fix TEAve all ave/time 1 100000 ${Nf} v_TotEn file TotalE.dat
fix TEAve all ave/time 1 100000 100000 v_TotEn file TotalE.dat

variable PotEn equal pe
fix PEAve all ave/time ${Ne} ${Nr} ${Nf} v_PotEn file PotenE.dat
fix PEAve all ave/time 1 ${Nr} ${Nf} v_PotEn file PotenE.dat
fix PEAve all ave/time 1 100000 ${Nf} v_PotEn file PotenE.dat
fix PEAve all ave/time 1 100000 100000 v_PotEn file PotenE.dat

compute T all temp
fix TempAve all ave/time ${Ne} ${Nr} ${Nf} c_T file temperature.dat
fix TempAve all ave/time 1 ${Nr} ${Nf} c_T file temperature.dat
fix TempAve all ave/time 1 100000 ${Nf} c_T file temperature.dat
fix TempAve all ave/time 1 100000 100000 c_T file temperature.dat

compute P all pressure T
fix PressAve all ave/time ${Ne} ${Nr} ${Nf} c_P file pressure.dat
fix PressAve all ave/time 1 ${Nr} ${Nf} c_P file pressure.dat
fix PressAve all ave/time 1 100000 ${Nf} c_P file pressure.dat
fix PressAve all ave/time 1 100000 100000 c_P file pressure.dat


# computing self-diffusion and Onsager coefficients using the OCTP plugin
compute positions all position
fix f1 all ordern diffusivity ${Ndiff} ${Nwrit} c_positions nb ${nb} nbe ${nbe}
fix f1 all ordern diffusivity 1000 ${Nwrit} c_positions nb ${nb} nbe ${nbe}
fix f1 all ordern diffusivity 1000 100000 c_positions nb ${nb} nbe ${nbe}
fix f1 all ordern diffusivity 1000 100000 c_positions nb 10 nbe ${nbe}
fix f1 all ordern diffusivity 1000 100000 c_positions nb 10 nbe 20


# computing shear and bulk viscosities  using the OCTP plugin
fix f2 all ordern viscosity ${Nvisc} ${Nwrit} c_P nb ${nb} nbe ${nbe}
fix f2 all ordern viscosity 5 ${Nwrit} c_P nb ${nb} nbe ${nbe}
fix f2 all ordern viscosity 5 100000 c_P nb ${nb} nbe ${nbe}
fix f2 all ordern viscosity 5 100000 c_P nb 10 nbe ${nbe}
fix f2 all ordern viscosity 5 100000 c_P nb 10 nbe 20


# computing thermal conductivity using the OCTP plugin
compute KE all ke/atom
compute PE all pe/atom
compute ST all stress/atom NULL virial
compute heatflux all heat/flux KE PE ST
fix f3 all ordern thermalconductivity ${Ncond} ${Nwrit} c_heatflux nb ${nb} nbe ${nbe}
fix f3 all ordern thermalconductivity 5 ${Nwrit} c_heatflux nb ${nb} nbe ${nbe}
fix f3 all ordern thermalconductivity 5 100000 c_heatflux nb ${nb} nbe ${nbe}
fix f3 all ordern thermalconductivity 5 100000 c_heatflux nb 10 nbe ${nbe}
fix f3 all ordern thermalconductivity 5 100000 c_heatflux nb 10 nbe 20


# computing the RDF for all group pairs
compute rdfs all rdf/ext Nbin ${binnum} Nwrite ${Nrdfw}
compute rdfs all rdf/ext Nbin 2000 Nwrite ${Nrdfw}
compute rdfs all rdf/ext Nbin 2000 Nwrite 1000
fix f4 all ave/time 1 1 ${Nrdfe} c_rdfs
fix f4 all ave/time 1 1 1000 c_rdfs

dump trjectory all xyz ${Nd} movie.xyz
dump trjectory all xyz 100000 movie.xyz
dump_modify trjectory element Ow H K Cl

run ${Nrun1}
run 250000
PPPM initialization ...
  extracting TIP4P info from pair style
  using 12-bit tables for long-range coulomb (../kspace.cpp:321)
  G vector (1/distance) = 0.310405
  grid = 24 24 24
  stencil order = 5
  estimated absolute RMS force accuracy = 0.00365851
  estimated relative force accuracy = 1.10175e-05
  using double precision FFTs
  3d grid and FFT values/proc = 5415 1152
Per MPI rank memory allocation (min/avg/max) = 14.31 | 14.31 | 14.32 Mbytes
Step Density Temp Press TotEng 
       0    1.1529415    301.56897    -655.9996   -8418.0858 
  100000    1.1529415    292.60179   -410.58692   -8423.6812 
  200000    1.1529415    292.34679    843.04074   -8404.3664 
  250000    1.1529415    291.77325   -442.95235   -8377.1815 
Loop time of 1289.49 on 12 procs for 250000 steps with 1572 atoms

Performance: 33.502 ns/day, 0.716 hours/ns, 193.875 timesteps/s
93.2% CPU use with 12 MPI tasks x no OpenMP threads

MPI task timing breakdown:
Section |  min time  |  avg time  |  max time  |%varavg| %total
---------------------------------------------------------------
Pair    | 707.67     | 767.18     | 819.53     | 141.4 | 59.49
Bond    | 3.3609     | 3.5094     | 3.652      |   5.4 |  0.27
Kspace  | 302.77     | 355.46     | 415.05     | 208.5 | 27.57
Neigh   | 40.491     | 40.536     | 40.575     |   0.4 |  3.14
Comm    | 38.938     | 39.256     | 39.72      |   3.4 |  3.04
Output  | 0.069687   | 0.070416   | 0.070867   |   0.1 |  0.01
Modify  | 78.401     | 78.523     | 78.637     |   0.8 |  6.09
Other   |            | 4.961      |            |       |  0.38

Nlocal:    131 ave 142 max 116 min
Histogram: 1 1 1 0 1 1 3 1 1 2
Nghost:    4219.75 ave 4299 max 4149 min
Histogram: 2 2 0 1 0 1 4 0 1 1
Neighs:    47721.3 ave 55838 max 40086 min
Histogram: 1 1 2 2 0 1 2 1 1 1

Total # of neighbors = 572656
Ave neighs/atom = 364.285
Ave special neighs/atom = 1.9084
Neighbor list builds = 19859
Dangerous builds = 0
shell bash copy_files.sh dt_${tstep} 00.25Mstep
shell bash copy_files.sh dt_2 00.25Mstep

run ${Nrun1}
run 250000
PPPM initialization ...
  extracting TIP4P info from pair style
  using 12-bit tables for long-range coulomb (../kspace.cpp:321)
  G vector (1/distance) = 0.310405
  grid = 24 24 24
  stencil order = 5
  estimated absolute RMS force accuracy = 0.00365851
  estimated relative force accuracy = 1.10175e-05
  using double precision FFTs
  3d grid and FFT values/proc = 5415 1152
Per MPI rank memory allocation (min/avg/max) = 14.31 | 14.31 | 14.32 Mbytes
Step Density Temp Press TotEng 
  250000    1.1529415    291.77325   -442.71896   -8377.1815 
  300000    1.1529415    315.58621    46.523152   -8352.6591 
  400000    1.1529415     309.2999    -115.8037   -8415.8372 
  500000    1.1529415    295.99633   -560.77589   -8351.4081 
Loop time of 1293.49 on 12 procs for 250000 steps with 1572 atoms

Performance: 33.398 ns/day, 0.719 hours/ns, 193.275 timesteps/s
93.2% CPU use with 12 MPI tasks x no OpenMP threads

MPI task timing breakdown:
Section |  min time  |  avg time  |  max time  |%varavg| %total
---------------------------------------------------------------
Pair    | 705.71     | 768.45     | 836.06     | 147.2 | 59.41
Bond    | 3.3578     | 3.5325     | 3.7254     |   7.3 |  0.27
Kspace  | 290.6      | 358.08     | 421.07     | 216.2 | 27.68
Neigh   | 40.673     | 40.713     | 40.745     |   0.4 |  3.15
Comm    | 38.972     | 39.227     | 39.662     |   3.0 |  3.03
Output  | 0.10138    | 0.10163    | 0.10203    |   0.1 |  0.01
Modify  | 78.29      | 78.422     | 78.54      |   0.7 |  6.06
Other   |            | 4.971      |            |       |  0.38

Nlocal:    131 ave 137 max 122 min
Histogram: 1 0 1 1 3 0 1 0 2 3
Nghost:    4208.42 ave 4243 max 4185 min
Histogram: 2 3 2 0 0 0 2 0 2 1
Neighs:    47708.2 ave 53988 max 42449 min
Histogram: 1 2 1 2 1 1 1 1 1 1

Total # of neighbors = 572499
Ave neighs/atom = 364.185
Ave special neighs/atom = 1.9084
Neighbor list builds = 19904
Dangerous builds = 0
shell bash copy_files.sh dt_${tstep} 00.50Mstep
shell bash copy_files.sh dt_2 00.50Mstep

run ${Nrun1}
run 250000
PPPM initialization ...
  extracting TIP4P info from pair style
  using 12-bit tables for long-range coulomb (../kspace.cpp:321)
  G vector (1/distance) = 0.310405
  grid = 24 24 24
  stencil order = 5
  estimated absolute RMS force accuracy = 0.00365851
  estimated relative force accuracy = 1.10175e-05
  using double precision FFTs
  3d grid and FFT values/proc = 5415 1152
Per MPI rank memory allocation (min/avg/max) = 14.31 | 14.31 | 14.32 Mbytes
Step Density Temp Press TotEng 
  500000    1.1529415    295.99633   -560.33659   -8351.4081 
  600000    1.1529415    305.68999     1103.211   -8319.7316 
  700000    1.1529415    303.44259    302.75093   -8413.0417 
  750000    1.1529415    309.76947    97.880351   -8390.6529 
Loop time of 1292.07 on 12 procs for 250000 steps with 1572 atoms

Performance: 33.435 ns/day, 0.718 hours/ns, 193.487 timesteps/s
93.2% CPU use with 12 MPI tasks x no OpenMP threads

MPI task timing breakdown:
Section |  min time  |  avg time  |  max time  |%varavg| %total
---------------------------------------------------------------
Pair    | 704.85     | 768.51     | 826.89     | 154.7 | 59.48
Bond    | 3.3395     | 3.5138     | 3.6677     |   6.1 |  0.27
Kspace  | 297.81     | 356.48     | 420.33     | 227.8 | 27.59
Neigh   | 40.46      | 40.505     | 40.546     |   0.5 |  3.13
Comm    | 38.925     | 39.212     | 39.661     |   3.6 |  3.03
Output  | 0.067992   | 0.068291   | 0.06871    |   0.1 |  0.01
Modify  | 78.62      | 78.809     | 78.969     |   1.0 |  6.10
Other   |            | 4.97       |            |       |  0.38

Nlocal:    131 ave 140 max 121 min
Histogram: 2 1 0 1 1 3 1 0 0 3
Nghost:    4211 ave 4266 max 4142 min
Histogram: 1 0 0 3 2 1 0 2 2 1
Neighs:    47736.1 ave 54236 max 40659 min
Histogram: 2 1 0 0 0 5 1 1 0 2

Total # of neighbors = 572833
Ave neighs/atom = 364.398
Ave special neighs/atom = 1.9084
Neighbor list builds = 19863
Dangerous builds = 0
shell bash copy_files.sh dt_${tstep} 00.75Mstep
shell bash copy_files.sh dt_2 00.75Mstep

run ${Nrun1}
run 250000
PPPM initialization ...
  extracting TIP4P info from pair style
  using 12-bit tables for long-range coulomb (../kspace.cpp:321)
  G vector (1/distance) = 0.310405
  grid = 24 24 24
  stencil order = 5
  estimated absolute RMS force accuracy = 0.00365851
  estimated relative force accuracy = 1.10175e-05
  using double precision FFTs
  3d grid and FFT values/proc = 5415 1152
Per MPI rank memory allocation (min/avg/max) = 14.31 | 14.31 | 14.32 Mbytes
Step Density Temp Press TotEng 
  750000    1.1529415    309.76947    97.871749   -8390.6529 
  800000    1.1529415     301.5235    247.37362   -8418.8685 
  900000    1.1529415    288.79487   -362.99447   -8446.1179 
 1000000    1.1529415    310.76782   -566.86534   -8351.9373 
Loop time of 1300.99 on 12 procs for 250000 steps with 1572 atoms

Performance: 33.206 ns/day, 0.723 hours/ns, 192.162 timesteps/s
92.9% CPU use with 12 MPI tasks x no OpenMP threads

MPI task timing breakdown:
Section |  min time  |  avg time  |  max time  |%varavg| %total
---------------------------------------------------------------
Pair    | 687.49     | 768.97     | 847.28     | 171.4 | 59.11
Bond    | 3.3358     | 3.4809     | 3.6221     |   5.7 |  0.27
Kspace  | 286.12     | 364.74     | 446.47     | 249.6 | 28.04
Neigh   | 40.645     | 40.715     | 40.774     |   0.7 |  3.13
Comm    | 38.96      | 39.217     | 39.715     |   3.4 |  3.01
Output  | 0.1009     | 0.1016     | 0.10198    |   0.1 |  0.01
Modify  | 78.631     | 78.78      | 78.96      |   0.9 |  6.06
Other   |            | 4.977      |            |       |  0.38

Nlocal:    131 ave 142 max 122 min
Histogram: 1 2 2 1 0 1 1 2 1 1
Nghost:    4185.08 ave 4309 max 4111 min
Histogram: 3 1 0 3 2 1 0 0 1 1
Neighs:    47698.3 ave 54868 max 42409 min
Histogram: 2 0 3 1 1 3 0 0 1 1

Total # of neighbors = 572380
Ave neighs/atom = 364.109
Ave special neighs/atom = 1.9084
Neighbor list builds = 19870
Dangerous builds = 0
shell bash copy_files.sh dt_${tstep} 01.00Mstep
shell bash copy_files.sh dt_2 01.00Mstep

run ${Nrun1}
run 250000
PPPM initialization ...
  extracting TIP4P info from pair style
  using 12-bit tables for long-range coulomb (../kspace.cpp:321)
  G vector (1/distance) = 0.310405
  grid = 24 24 24
  stencil order = 5
  estimated absolute RMS force accuracy = 0.00365851
  estimated relative force accuracy = 1.10175e-05
  using double precision FFTs
  3d grid and FFT values/proc = 5415 1152
Per MPI rank memory allocation (min/avg/max) = 14.31 | 14.31 | 14.32 Mbytes
Step Density Temp Press TotEng 
 1000000    1.1529415    310.76782   -566.63417   -8351.9373 
 1100000    1.1529415    309.07874    472.41414   -8302.4012 
 1200000    1.1529415    323.80001   -75.859034   -8343.0132 
 1250000    1.1529415    293.04816   -290.20056   -8365.2497 
Loop time of 1295.77 on 12 procs for 250000 steps with 1572 atoms

Performance: 33.339 ns/day, 0.720 hours/ns, 192.936 timesteps/s
93.1% CPU use with 12 MPI tasks x no OpenMP threads

MPI task timing breakdown:
Section |  min time  |  avg time  |  max time  |%varavg| %total
---------------------------------------------------------------
Pair    | 708.68     | 769.51     | 828.53     | 144.6 | 59.39
Bond    | 3.3828     | 3.5162     | 3.6552     |   5.8 |  0.27
Kspace  | 300.15     | 359.08     | 419.97     | 212.2 | 27.71
Neigh   | 40.613     | 40.657     | 40.692     |   0.5 |  3.14
Comm    | 38.94      | 39.19      | 39.637     |   3.1 |  3.02
Output  | 0.067396   | 0.067757   | 0.068397   |   0.1 |  0.01
Modify  | 78.629     | 78.771     | 78.913     |   0.8 |  6.08
Other   |            | 4.975      |            |       |  0.38

Nlocal:    131 ave 139 max 120 min
Histogram: 1 0 1 1 2 1 2 0 2 2
Nghost:    4237.33 ave 4312 max 4187 min
Histogram: 3 1 2 1 0 2 0 1 1 1
Neighs:    47710.6 ave 52372 max 40526 min
Histogram: 1 1 0 1 0 3 1 2 1 2

Total # of neighbors = 572527
Ave neighs/atom = 364.203
Ave special neighs/atom = 1.9084
Neighbor list builds = 19870
Dangerous builds = 0
shell bash copy_files.sh dt_${tstep} 01.25Mstep
shell bash copy_files.sh dt_2 01.25Mstep

run ${Nrun1}
run 250000
PPPM initialization ...
  extracting TIP4P info from pair style
  using 12-bit tables for long-range coulomb (../kspace.cpp:321)
  G vector (1/distance) = 0.310405
  grid = 24 24 24
  stencil order = 5
  estimated absolute RMS force accuracy = 0.00365851
  estimated relative force accuracy = 1.10175e-05
  using double precision FFTs
  3d grid and FFT values/proc = 5415 1152
Per MPI rank memory allocation (min/avg/max) = 14.31 | 14.31 | 14.32 Mbytes
Step Density Temp Press TotEng 
 1250000    1.1529415    293.04816   -290.99958   -8365.2497 
 1300000    1.1529415    298.81035    167.61423   -8381.1932 
 1400000    1.1529415    302.15869    146.65928   -8318.2912 
 1500000    1.1529415    294.92268   -1114.1736   -8385.5832 
Loop time of 1294.96 on 12 procs for 250000 steps with 1572 atoms

Performance: 33.360 ns/day, 0.719 hours/ns, 193.056 timesteps/s
93.1% CPU use with 12 MPI tasks x no OpenMP threads

MPI task timing breakdown:
Section |  min time  |  avg time  |  max time  |%varavg| %total
---------------------------------------------------------------
Pair    | 694.46     | 766.8      | 825.82     | 161.4 | 59.21
Bond    | 3.3596     | 3.5047     | 3.6631     |   5.9 |  0.27
Kspace  | 302.01     | 361.34     | 433.92     | 235.8 | 27.90
Neigh   | 40.576     | 40.63      | 40.673     |   0.5 |  3.14
Comm    | 38.946     | 39.214     | 39.688     |   3.1 |  3.03
Output  | 0.10138    | 0.10179    | 0.10209    |   0.1 |  0.01
Modify  | 78.289     | 78.42      | 78.539     |   0.7 |  6.06
Other   |            | 4.958      |            |       |  0.38

Nlocal:    131 ave 149 max 117 min
Histogram: 1 0 0 5 2 3 0 0 0 1
Nghost:    4203.33 ave 4255 max 4143 min
Histogram: 2 0 2 1 0 1 2 0 2 2
Neighs:    47669.4 ave 54623 max 42255 min
Histogram: 2 0 1 1 3 2 2 0 0 1

Total # of neighbors = 572033
Ave neighs/atom = 363.889
Ave special neighs/atom = 1.9084
Neighbor list builds = 19854
Dangerous builds = 0
shell bash copy_files.sh dt_${tstep} 01.50Mstep
shell bash copy_files.sh dt_2 01.50Mstep

run ${Nrun1}
run 250000
PPPM initialization ...
  extracting TIP4P info from pair style
  using 12-bit tables for long-range coulomb (../kspace.cpp:321)
  G vector (1/distance) = 0.310405
  grid = 24 24 24
  stencil order = 5
  estimated absolute RMS force accuracy = 0.00365851
  estimated relative force accuracy = 1.10175e-05
  using double precision FFTs
  3d grid and FFT values/proc = 5415 1152
Per MPI rank memory allocation (min/avg/max) = 14.31 | 14.31 | 14.32 Mbytes
Step Density Temp Press TotEng 
 1500000    1.1529415    294.92268   -1114.3394   -8385.5832 
 1600000    1.1529415     287.2171    -309.3842   -8421.8707 
 1700000    1.1529415    307.12882    146.70899   -8284.3211 
 1750000    1.1529415     299.7383    126.06928   -8412.7638 
Loop time of 1290.39 on 12 procs for 250000 steps with 1572 atoms

Performance: 33.478 ns/day, 0.717 hours/ns, 193.740 timesteps/s
93.3% CPU use with 12 MPI tasks x no OpenMP threads

MPI task timing breakdown:
Section |  min time  |  avg time  |  max time  |%varavg| %total
---------------------------------------------------------------
Pair    | 694.97     | 768.68     | 821.11     | 152.3 | 59.57
Bond    | 3.3737     | 3.5171     | 3.6608     |   5.8 |  0.27
Kspace  | 302.31     | 354.64     | 428.64     | 224.8 | 27.48
Neigh   | 40.576     | 40.626     | 40.664     |   0.5 |  3.15
Comm    | 38.905     | 39.208     | 39.653     |   3.4 |  3.04
Output  | 0.067615   | 0.067983   | 0.068631   |   0.1 |  0.01
Modify  | 78.531     | 78.696     | 78.831     |   0.9 |  6.10
Other   |            | 4.957      |            |       |  0.38

Nlocal:    131 ave 141 max 121 min
Histogram: 2 0 2 0 1 1 2 1 2 1
Nghost:    4222.67 ave 4260 max 4177 min
Histogram: 1 0 1 1 0 3 4 1 0 1
Neighs:    47709.2 ave 53219 max 42048 min
Histogram: 2 1 0 0 2 1 2 2 1 1

Total # of neighbors = 572511
Ave neighs/atom = 364.193
Ave special neighs/atom = 1.9084
Neighbor list builds = 19892
Dangerous builds = 0
shell bash copy_files.sh dt_${tstep} 01.75Mstep
shell bash copy_files.sh dt_2 01.75Mstep

run ${Nrun1}
run 250000
PPPM initialization ...
  extracting TIP4P info from pair style
  using 12-bit tables for long-range coulomb (../kspace.cpp:321)
  G vector (1/distance) = 0.310405
  grid = 24 24 24
  stencil order = 5
  estimated absolute RMS force accuracy = 0.00365851
  estimated relative force accuracy = 1.10175e-05
  using double precision FFTs
  3d grid and FFT values/proc = 5415 1152
Per MPI rank memory allocation (min/avg/max) = 14.31 | 14.31 | 14.32 Mbytes
Step Density Temp Press TotEng 
 1750000    1.1529415     299.7383    125.86014   -8412.7638 
 1800000    1.1529415    288.65801   -458.70323   -8446.7332 
 1900000    1.1529415    292.03458    311.47702   -8412.1944 
 2000000    1.1529415    299.29379   -551.65816   -8320.0825 
Loop time of 1297.03 on 12 procs for 250000 steps with 1572 atoms

Performance: 33.307 ns/day, 0.721 hours/ns, 192.749 timesteps/s
93.2% CPU use with 12 MPI tasks x no OpenMP threads

MPI task timing breakdown:
Section |  min time  |  avg time  |  max time  |%varavg| %total
---------------------------------------------------------------
Pair    | 703.46     | 770.18     | 827.63     | 151.2 | 59.38
Bond    | 3.381      | 3.5112     | 3.6518     |   5.3 |  0.27
Kspace  | 302.26     | 359.63     | 426.63     | 221.9 | 27.73
Neigh   | 40.641     | 40.68      | 40.71      |   0.4 |  3.14
Comm    | 38.95      | 39.23      | 39.659     |   3.1 |  3.02
Output  | 0.10118    | 0.10149    | 0.10189    |   0.1 |  0.01
Modify  | 78.574     | 78.736     | 78.891     |   1.0 |  6.07
Other   |            | 4.956      |            |       |  0.38

Nlocal:    131 ave 143 max 123 min
Histogram: 1 1 1 3 2 3 0 0 0 1
Nghost:    4196.58 ave 4267 max 4144 min
Histogram: 2 0 3 1 2 0 2 1 0 1
Neighs:    47726.8 ave 52142 max 43532 min
Histogram: 1 1 2 2 1 0 2 0 1 2

Total # of neighbors = 572722
Ave neighs/atom = 364.327
Ave special neighs/atom = 1.9084
Neighbor list builds = 19879
Dangerous builds = 0
shell bash copy_files.sh dt_${tstep} 02.00step
shell bash copy_files.sh dt_2 02.00step

run ${Nrun2}
run 1000000
PPPM initialization ...
  extracting TIP4P info from pair style
  using 12-bit tables for long-range coulomb (../kspace.cpp:321)
  G vector (1/distance) = 0.310405
  grid = 24 24 24
  stencil order = 5
  estimated absolute RMS force accuracy = 0.00365851
  estimated relative force accuracy = 1.10175e-05
  using double precision FFTs
  3d grid and FFT values/proc = 5415 1152
Per MPI rank memory allocation (min/avg/max) = 14.31 | 14.31 | 14.32 Mbytes
Step Density Temp Press TotEng 
 2000000    1.1529415    299.29379   -551.40352   -8320.0825 
 2100000    1.1529415    302.65997    91.503125   -8421.4811 
 2200000    1.1529415    311.13401    441.05644   -8390.0024 
 2300000    1.1529415    283.74669    468.92125   -8416.3874 
 2400000    1.1529415    298.98436    457.65131   -8415.9906 
 2500000    1.1529415    308.40498    507.50726   -8379.0149 
 2600000    1.1529415    301.11639   -1030.9459   -8378.8034 
 2700000    1.1529415    301.34441   -946.03454    -8341.032 
 2800000    1.1529415    317.25717    592.94411   -8311.6047 
 2900000    1.1529415    309.50809    1215.1899   -8378.6578 
 3000000    1.1529415    285.56378    371.28273   -8446.8701 
Loop time of 5164.53 on 12 procs for 1000000 steps with 1572 atoms

Performance: 33.459 ns/day, 0.717 hours/ns, 193.628 timesteps/s
93.2% CPU use with 12 MPI tasks x no OpenMP threads

MPI task timing breakdown:
Section |  min time  |  avg time  |  max time  |%varavg| %total
---------------------------------------------------------------
Pair    | 2841.8     | 3073.7     | 3279.8     | 281.4 | 59.52
Bond    | 13.461     | 14.077     | 14.7       |  12.0 |  0.27
Kspace  | 1218       | 1423.6     | 1656.3     | 414.6 | 27.56
Neigh   | 162.1      | 162.27     | 162.42     |   0.9 |  3.14
Comm    | 155.89     | 156.84     | 158.64     |   6.3 |  3.04
Output  | 0.3378     | 0.33908    | 0.34039    |   0.1 |  0.01
Modify  | 313.36     | 313.85     | 314.35     |   1.5 |  6.08
Other   |            | 19.85      |            |       |  0.38

Nlocal:    131 ave 140 max 114 min
Histogram: 1 0 0 1 0 3 2 0 3 2
Nghost:    4219.58 ave 4311 max 4154 min
Histogram: 2 1 0 3 2 1 1 1 0 1
Neighs:    47704.8 ave 52879 max 38695 min
Histogram: 1 0 0 1 1 2 2 1 1 3

Total # of neighbors = 572457
Ave neighs/atom = 364.158
Ave special neighs/atom = 1.9084
Neighbor list builds = 79451
Dangerous builds = 0
shell bash copy_files.sh dt_${tstep} 03.00Mstep
shell bash copy_files.sh dt_2 03.00Mstep

run ${Nrun2}
run 1000000
PPPM initialization ...
  extracting TIP4P info from pair style
  using 12-bit tables for long-range coulomb (../kspace.cpp:321)
  G vector (1/distance) = 0.310405
  grid = 24 24 24
  stencil order = 5
  estimated absolute RMS force accuracy = 0.00365851
  estimated relative force accuracy = 1.10175e-05
  using double precision FFTs
  3d grid and FFT values/proc = 5415 1152
Per MPI rank memory allocation (min/avg/max) = 14.31 | 14.31 | 14.32 Mbytes
Step Density Temp Press TotEng 
 3000000    1.1529415    285.56378    370.91841   -8446.8701 
 3100000    1.1529415     307.0277   -410.27715   -8399.7555 
 3200000    1.1529415    297.68031   -506.25509   -8401.6434 
 3300000    1.1529415    292.79518   -109.11717   -8390.3955 
 3400000    1.1529415    288.24295     75.71003   -8431.6536 
 3500000    1.1529415    304.43399    401.32093   -8354.5283 
 3600000    1.1529415    291.55023    273.67123   -8447.3148 
 3700000    1.1529415    304.17725   -373.50125   -8377.9238 
 3800000    1.1529415    286.09922   -146.95146   -8418.3566 
 3900000    1.1529415    296.58985    824.83732   -8392.8262 
 4000000    1.1529415    298.03226   -119.17598    -8452.022 
Loop time of 5162.2 on 12 procs for 1000000 steps with 1572 atoms

Performance: 33.474 ns/day, 0.717 hours/ns, 193.716 timesteps/s
93.2% CPU use with 12 MPI tasks x no OpenMP threads

MPI task timing breakdown:
Section |  min time  |  avg time  |  max time  |%varavg| %total
---------------------------------------------------------------
Pair    | 2828       | 3063.5     | 3278       | 289.2 | 59.35
Bond    | 13.49      | 14.036     | 14.568     |  10.3 |  0.27
Kspace  | 1215.8     | 1431.2     | 1667.8     | 424.7 | 27.73
Neigh   | 162.3      | 162.51     | 162.68     |   0.9 |  3.15
Comm    | 155.92     | 156.94     | 158.77     |   6.8 |  3.04
Output  | 0.3377     | 0.33933    | 0.34094    |   0.1 |  0.01
Modify  | 313.1      | 313.7      | 314.24     |   1.7 |  6.08
Other   |            | 19.9       |            |       |  0.39

Nlocal:    131 ave 140 max 123 min
Histogram: 3 1 0 0 3 1 1 0 0 3
Nghost:    4189 ave 4240 max 4142 min
Histogram: 2 0 0 1 3 1 3 1 0 1
Neighs:    47741.8 ave 51925 max 43338 min
Histogram: 1 1 1 2 1 1 1 2 1 1

Total # of neighbors = 572902
Ave neighs/atom = 364.441
Ave special neighs/atom = 1.9084
Neighbor list builds = 79439
Dangerous builds = 0
shell bash copy_files.sh dt_${tstep} 04.00Mstep
shell bash copy_files.sh dt_2 04.00Mstep

run ${Nrun2}
run 1000000
PPPM initialization ...
  extracting TIP4P info from pair style
  using 12-bit tables for long-range coulomb (../kspace.cpp:321)
  G vector (1/distance) = 0.310405
  grid = 24 24 24
  stencil order = 5
  estimated absolute RMS force accuracy = 0.00365851
  estimated relative force accuracy = 1.10175e-05
  using double precision FFTs
  3d grid and FFT values/proc = 5415 1152
Per MPI rank memory allocation (min/avg/max) = 14.31 | 14.31 | 14.32 Mbytes
Step Density Temp Press TotEng 
 4000000    1.1529415    298.03226   -118.80355    -8452.022 
 4100000    1.1529415    310.38089   -1174.1509   -8341.6151 
 4200000    1.1529415      292.402   -215.80636   -8415.2991 
 4300000    1.1529415    305.63191   -69.790752   -8409.2503 
 4400000    1.1529415     294.7446    211.86565   -8374.3385 
 4500000    1.1529415    299.31046   -632.36648   -8367.3633 
 4600000    1.1529415     292.7976   -17.250848    -8420.963 
 4700000    1.1529415    288.54786   -750.53353   -8405.7488 
 4800000    1.1529415    304.22129    610.99525   -8426.9389 
 4900000    1.1529415    302.55892    126.65704   -8389.6901 
 5000000    1.1529415    306.16153   -488.31976   -8352.4079 
Loop time of 5141.74 on 12 procs for 1000000 steps with 1572 atoms

Performance: 33.607 ns/day, 0.714 hours/ns, 194.487 timesteps/s
93.4% CPU use with 12 MPI tasks x no OpenMP threads

MPI task timing breakdown:
Section |  min time  |  avg time  |  max time  |%varavg| %total
---------------------------------------------------------------
Pair    | 2836.4     | 3068.1     | 3265.3     | 266.0 | 59.67
Bond    | 13.466     | 14.097     | 14.701     |  11.3 |  0.27
Kspace  | 1208.8     | 1406.9     | 1639.6     | 394.1 | 27.36
Neigh   | 161.89     | 162.06     | 162.2      |   0.9 |  3.15
Comm    | 156.08     | 156.99     | 158.57     |   6.1 |  3.05
Output  | 0.33801    | 0.33935    | 0.34086    |   0.1 |  0.01
Modify  | 312.78     | 313.35     | 313.87     |   1.7 |  6.09
Other   |            | 19.89      |            |       |  0.39

Nlocal:    131 ave 139 max 118 min
Histogram: 3 0 0 0 0 1 2 0 2 4
Nghost:    4192.5 ave 4251 max 4134 min
Histogram: 3 1 1 1 0 0 1 0 2 3
Neighs:    47695 ave 54136 max 42796 min
Histogram: 2 3 0 1 2 0 0 1 2 1

Total # of neighbors = 572340
Ave neighs/atom = 364.084
Ave special neighs/atom = 1.9084
Neighbor list builds = 79511
Dangerous builds = 0
shell bash copy_files.sh dt_${tstep} 05.00Mstep
shell bash copy_files.sh dt_2 05.00Mstep

run ${Nrun2}
run 1000000
PPPM initialization ...
  extracting TIP4P info from pair style
  using 12-bit tables for long-range coulomb (../kspace.cpp:321)
  G vector (1/distance) = 0.310405
  grid = 24 24 24
  stencil order = 5
  estimated absolute RMS force accuracy = 0.00365851
  estimated relative force accuracy = 1.10175e-05
  using double precision FFTs
  3d grid and FFT values/proc = 5415 1152
Per MPI rank memory allocation (min/avg/max) = 14.31 | 14.31 | 14.32 Mbytes
Step Density Temp Press TotEng 
 5000000    1.1529415    306.16153   -488.57926   -8352.4079 
 5100000    1.1529415    305.51049   -1347.0375   -8312.4345 
 5200000    1.1529415    308.91527   -573.18672   -8388.3787 
 5300000    1.1529415    308.38097   -288.80589   -8324.7351 
 5400000    1.1529415    300.33363    5.6356207    -8381.058 
 5500000    1.1529415    299.12376   -308.73261   -8472.3329 
 5600000    1.1529415     307.4446    378.04633   -8418.4431 
 5700000    1.1529415    304.77278    650.69634   -8411.9601 
 5800000    1.1529415    290.53095    621.32698   -8385.5595 
 5900000    1.1529415    297.06449    705.21817   -8291.6944 
 6000000    1.1529415    302.58871    12.443254   -8464.9033 
Loop time of 5156.18 on 12 procs for 1000000 steps with 1572 atoms

Performance: 33.513 ns/day, 0.716 hours/ns, 193.942 timesteps/s
93.4% CPU use with 12 MPI tasks x no OpenMP threads

MPI task timing breakdown:
Section |  min time  |  avg time  |  max time  |%varavg| %total
---------------------------------------------------------------
Pair    | 2849.3     | 3073.8     | 3267.5     | 259.0 | 59.61
Bond    | 13.463     | 14.097     | 14.701     |  11.7 |  0.27
Kspace  | 1220.6     | 1415.6     | 1640.9     | 383.0 | 27.45
Neigh   | 161.85     | 162.02     | 162.2      |   0.9 |  3.14
Comm    | 155.95     | 156.85     | 158.55     |   6.4 |  3.04
Output  | 0.33861    | 0.33942    | 0.34149    |   0.1 |  0.01
Modify  | 313        | 313.6      | 314.08     |   1.6 |  6.08
Other   |            | 19.93      |            |       |  0.39

Nlocal:    131 ave 141 max 123 min
Histogram: 3 0 2 1 1 1 0 2 0 2
Nghost:    4200.83 ave 4251 max 4149 min
Histogram: 3 0 0 2 1 1 0 2 1 2
Neighs:    47678.2 ave 55159 max 40792 min
Histogram: 1 0 3 1 2 1 1 2 0 1

Total # of neighbors = 572138
Ave neighs/atom = 363.955
Ave special neighs/atom = 1.9084
Neighbor list builds = 79415
Dangerous builds = 0
shell bash copy_files.sh dt_${tstep} 06.00Mstep
shell bash copy_files.sh dt_2 06.00Mstep

run ${Nrun2}
run 1000000
PPPM initialization ...
  extracting TIP4P info from pair style
  using 12-bit tables for long-range coulomb (../kspace.cpp:321)
  G vector (1/distance) = 0.310405
  grid = 24 24 24
  stencil order = 5
  estimated absolute RMS force accuracy = 0.00365851
  estimated relative force accuracy = 1.10175e-05
  using double precision FFTs
  3d grid and FFT values/proc = 5415 1152
Per MPI rank memory allocation (min/avg/max) = 14.31 | 14.31 | 14.32 Mbytes
Step Density Temp Press TotEng 
 6000000    1.1529415    302.58871    12.346363   -8464.9033 
 6100000    1.1529415    316.21961   -36.914746   -8359.5003 
 6200000    1.1529415    299.78602    1264.6831    -8373.307 
 6300000    1.1529415    308.29812   -581.05411   -8310.0421 
 6400000    1.1529415     300.7517   -470.60385   -8405.9239 
 6500000    1.1529415    302.70883   -279.05622   -8426.9764 
 6600000    1.1529415    292.92026    772.30485   -8348.6896 
 6700000    1.1529415    307.69226   -452.66415   -8377.8475 
 6800000    1.1529415     296.1867   -258.85505   -8453.8559 
 6900000    1.1529415    294.96381    281.34822   -8398.3162 
 7000000    1.1529415    283.25271   -245.83504   -8488.7671 
Loop time of 5136.8 on 12 procs for 1000000 steps with 1572 atoms

Performance: 33.640 ns/day, 0.713 hours/ns, 194.674 timesteps/s
93.5% CPU use with 12 MPI tasks x no OpenMP threads

MPI task timing breakdown:
Section |  min time  |  avg time  |  max time  |%varavg| %total
---------------------------------------------------------------
Pair    | 2883.3     | 3069.9     | 3262.8     | 232.9 | 59.76
Bond    | 13.601     | 14.171     | 14.744     |  11.2 |  0.28
Kspace  | 1205.8     | 1399.6     | 1587.2     | 346.1 | 27.25
Neigh   | 161.7      | 161.88     | 162.05     |   0.8 |  3.15
Comm    | 156.05     | 156.89     | 158.54     |   5.9 |  3.05
Output  | 0.33705    | 0.33857    | 0.3395     |   0.1 |  0.01
Modify  | 313.54     | 314.07     | 314.63     |   1.5 |  6.11
Other   |            | 19.96      |            |       |  0.39

Nlocal:    131 ave 144 max 120 min
Histogram: 1 2 2 0 0 2 3 0 1 1
Nghost:    4199.75 ave 4284 max 4116 min
Histogram: 1 1 1 0 4 0 2 2 0 1
Neighs:    47760.7 ave 58303 max 41305 min
Histogram: 1 3 2 1 2 0 1 1 0 1

Total # of neighbors = 573128
Ave neighs/atom = 364.585
Ave special neighs/atom = 1.9084
Neighbor list builds = 79417
Dangerous builds = 0
shell bash copy_files.sh dt_${tstep} 07.00Mstep
shell bash copy_files.sh dt_2 07.00Mstep

run ${Nrun2}
run 1000000
PPPM initialization ...
  extracting TIP4P info from pair style
  using 12-bit tables for long-range coulomb (../kspace.cpp:321)
  G vector (1/distance) = 0.310405
  grid = 24 24 24
  stencil order = 5
  estimated absolute RMS force accuracy = 0.00365851
  estimated relative force accuracy = 1.10175e-05
  using double precision FFTs
  3d grid and FFT values/proc = 5415 1152
Per MPI rank memory allocation (min/avg/max) = 14.31 | 14.31 | 14.32 Mbytes
Step Density Temp Press TotEng 
 7000000    1.1529415    283.25271   -246.00489   -8488.7671 
 7100000    1.1529415    303.51204    190.72381   -8412.2873 
 7200000    1.1529415    306.40942   -352.70982   -8352.4389 
 7300000    1.1529415    289.37057   -48.212553   -8402.7671 
 7400000    1.1529415     300.7078     141.0082   -8414.6095 
 7500000    1.1529415     292.2754    187.82728   -8418.9237 
 7600000    1.1529415     308.3671    793.66031   -8321.9561 
 7700000    1.1529415    295.11028   -816.52963   -8394.4889 
 7800000    1.1529415    291.71483   -273.15194    -8440.873 
 7900000    1.1529415    310.39785    761.62976   -8402.6998 
 8000000    1.1529415     306.4346    104.09378   -8351.1927 
Loop time of 5165.79 on 12 procs for 1000000 steps with 1572 atoms

Performance: 33.451 ns/day, 0.717 hours/ns, 193.581 timesteps/s
93.3% CPU use with 12 MPI tasks x no OpenMP threads

MPI task timing breakdown:
Section |  min time  |  avg time  |  max time  |%varavg| %total
---------------------------------------------------------------
Pair    | 2834.2     | 3070.1     | 3297.1     | 287.8 | 59.43
Bond    | 13.49      | 14.04      | 14.619     |  11.1 |  0.27
Kspace  | 1199.4     | 1427.5     | 1664.4     | 423.6 | 27.63
Neigh   | 162.24     | 162.46     | 162.64     |   0.9 |  3.14
Comm    | 156.06     | 157.08     | 158.91     |   6.4 |  3.04
Output  | 0.33741    | 0.33926    | 0.34074    |   0.1 |  0.01
Modify  | 313.73     | 314.33     | 314.87     |   1.6 |  6.08
Other   |            | 19.94      |            |       |  0.39

Nlocal:    131 ave 147 max 116 min
Histogram: 1 2 0 1 2 2 2 1 0 1
Nghost:    4208.08 ave 4304 max 4151 min
Histogram: 1 2 3 2 0 1 2 0 0 1
Neighs:    47726.5 ave 55733 max 39799 min
Histogram: 1 0 0 4 2 0 3 1 0 1

Total # of neighbors = 572718
Ave neighs/atom = 364.324
Ave special neighs/atom = 1.9084
Neighbor list builds = 79479
Dangerous builds = 0
shell bash copy_files.sh dt_${tstep} 08.00Mstep
shell bash copy_files.sh dt_2 08.00Mstep

run ${Nrun2}
run 1000000
PPPM initialization ...
  extracting TIP4P info from pair style
  using 12-bit tables for long-range coulomb (../kspace.cpp:321)
  G vector (1/distance) = 0.310405
  grid = 24 24 24
  stencil order = 5
  estimated absolute RMS force accuracy = 0.00365851
  estimated relative force accuracy = 1.10175e-05
  using double precision FFTs
  3d grid and FFT values/proc = 5415 1152
Per MPI rank memory allocation (min/avg/max) = 14.31 | 14.31 | 14.32 Mbytes
Step Density Temp Press TotEng 
 8000000    1.1529415     306.4346     104.3936   -8351.1927 
 8100000    1.1529415    304.48365   -410.85925   -8377.8627 
 8200000    1.1529415    292.35083   -273.37426   -8403.2805 
 8300000    1.1529415    310.91807   -407.67028   -8350.6101 
 8400000    1.1529415    294.89152    12.312356   -8391.2815 
 8500000    1.1529415    302.51646    60.613136   -8408.8677 
 8600000    1.1529415    293.46554    207.17025   -8391.9133 
 8700000    1.1529415    291.87228   -509.39021    -8449.285 
 8800000    1.1529415    282.91232     5.874738   -8361.1318 
 8900000    1.1529415    291.99419   -291.56299   -8408.8451 
 9000000    1.1529415    292.11783    499.53323   -8430.5533 
Loop time of 5168.15 on 12 procs for 1000000 steps with 1572 atoms

Performance: 33.436 ns/day, 0.718 hours/ns, 193.493 timesteps/s
93.3% CPU use with 12 MPI tasks x no OpenMP threads

MPI task timing breakdown:
Section |  min time  |  avg time  |  max time  |%varavg| %total
---------------------------------------------------------------
Pair    | 2841.9     | 3080.5     | 3333.6     | 263.9 | 59.61
Bond    | 13.505     | 14.107     | 14.652     |  11.8 |  0.27
Kspace  | 1166.1     | 1418.9     | 1658.4     | 389.9 | 27.45
Neigh   | 162.19     | 162.37     | 162.52     |   0.9 |  3.14
Comm    | 156.1      | 156.95     | 158.34     |   5.8 |  3.04
Output  | 0.33834    | 0.3395     | 0.34069    |   0.1 |  0.01
Modify  | 314.39     | 315.04     | 315.54     |   1.7 |  6.10
Other   |            | 19.95      |            |       |  0.39

Nlocal:    131 ave 139 max 123 min
Histogram: 1 1 2 2 0 1 1 0 3 1
Nghost:    4230.83 ave 4292 max 4140 min
Histogram: 1 1 1 0 0 1 3 2 1 2
Neighs:    47723.6 ave 54064 max 42213 min
Histogram: 2 0 1 1 4 1 0 1 0 2

Total # of neighbors = 572683
Ave neighs/atom = 364.302
Ave special neighs/atom = 1.9084
Neighbor list builds = 79572
Dangerous builds = 0
shell bash copy_files.sh dt_${tstep} 09.00Mstep
shell bash copy_files.sh dt_2 09.00Mstep

run ${Nrun2}
run 1000000
PPPM initialization ...
  extracting TIP4P info from pair style
  using 12-bit tables for long-range coulomb (../kspace.cpp:321)
  G vector (1/distance) = 0.310405
  grid = 24 24 24
  stencil order = 5
  estimated absolute RMS force accuracy = 0.00365851
  estimated relative force accuracy = 1.10175e-05
  using double precision FFTs
  3d grid and FFT values/proc = 5415 1152
Per MPI rank memory allocation (min/avg/max) = 14.31 | 14.31 | 14.32 Mbytes
Step Density Temp Press TotEng 
 9000000    1.1529415    292.11783    498.88896   -8430.5533 
 9100000    1.1529415    309.53504    565.33469   -8296.3664 
 9200000    1.1529415    301.45254     559.8579   -8353.4433 
 9300000    1.1529415    296.62471    855.13294   -8417.4972 
 9400000    1.1529415    301.73728    127.50211   -8383.3354 
 9500000    1.1529415    294.64023    177.06747   -8363.9285 
 9600000    1.1529415      289.441    208.59513   -8460.7285 
 9700000    1.1529415    289.91443    267.95965   -8379.3137 
 9800000    1.1529415    299.28999   -459.11414   -8400.7952 
 9900000    1.1529415    289.70175     623.9423   -8454.1728 
10000000    1.1529415    294.57247   -85.724389   -8411.8237 
Loop time of 5143.79 on 12 procs for 1000000 steps with 1572 atoms

Performance: 33.594 ns/day, 0.714 hours/ns, 194.409 timesteps/s
93.5% CPU use with 12 MPI tasks x no OpenMP threads

MPI task timing breakdown:
Section |  min time  |  avg time  |  max time  |%varavg| %total
---------------------------------------------------------------
Pair    | 2865.9     | 3072.5     | 3257.9     | 252.8 | 59.73
Bond    | 13.496     | 14.116     | 14.684     |  11.9 |  0.27
Kspace  | 1217.8     | 1404.1     | 1611.6     | 375.4 | 27.30
Neigh   | 161.76     | 161.93     | 162.1      |   0.8 |  3.15
Comm    | 155.95     | 156.92     | 158.57     |   6.2 |  3.05
Output  | 0.33823    | 0.33948    | 0.34032    |   0.1 |  0.01
Modify  | 313.29     | 313.88     | 314.38     |   1.6 |  6.10
Other   |            | 19.94      |            |       |  0.39

Nlocal:    131 ave 139 max 122 min
Histogram: 1 1 1 1 2 1 1 0 3 1
Nghost:    4217.17 ave 4271 max 4165 min
Histogram: 2 1 1 1 2 0 0 2 2 1
Neighs:    47722 ave 51639 max 43332 min
Histogram: 2 0 2 0 2 0 2 1 1 2

Total # of neighbors = 572664
Ave neighs/atom = 364.29
Ave special neighs/atom = 1.9084
Neighbor list builds = 79475
Dangerous builds = 0
shell bash copy_files.sh dt_${tstep} 10.00Mstep
shell bash copy_files.sh dt_2 10.00Mstep

run ${Nrun3}
run 2500000
PPPM initialization ...
  extracting TIP4P info from pair style
  using 12-bit tables for long-range coulomb (../kspace.cpp:321)
  G vector (1/distance) = 0.310405
  grid = 24 24 24
  stencil order = 5
  estimated absolute RMS force accuracy = 0.00365851
  estimated relative force accuracy = 1.10175e-05
  using double precision FFTs
  3d grid and FFT values/proc = 5415 1152
Per MPI rank memory allocation (min/avg/max) = 14.31 | 14.31 | 14.32 Mbytes
Step Density Temp Press TotEng 
10000000    1.1529415    294.57247   -86.008092   -8411.8237 
10100000    1.1529415    288.01328   -99.183952   -8420.1231 
10200000    1.1529415    301.77535   -559.34332   -8370.9514 
10300000    1.1529415    298.79901    680.08549   -8430.4196 
10400000    1.1529415    296.78881   -473.01736   -8381.3407 
10500000    1.1529415    292.80192    597.25203   -8379.4373 
10600000    1.1529415     297.0525   -139.49048    -8362.912 
10700000    1.1529415    311.66486    310.53715   -8391.2102 
10800000    1.1529415    309.73175   -430.67351   -8343.8454 
10900000    1.1529415    314.68067   -126.94375   -8336.0275 
11000000    1.1529415    285.14682   -618.01384   -8495.7078 
11100000    1.1529415    300.42415   -494.37961   -8442.1768 
11200000    1.1529415    277.97335    688.34564   -8491.5296 
11300000    1.1529415    301.47257    77.217144   -8444.3809 
11400000    1.1529415    292.85344    1015.1953    -8369.976 
11500000    1.1529415    306.23331    21.987995   -8391.8928 
11600000    1.1529415    292.50164    567.47477   -8345.8875 
11700000    1.1529415    294.87968    258.49415   -8383.9681 
11800000    1.1529415    303.57459     403.3594    -8413.988 
11900000    1.1529415    299.56219       94.902   -8359.3079 
12000000    1.1529415    287.20327   -607.85211   -8432.2732 
12100000    1.1529415    318.11728   -348.35441    -8373.764 
12200000    1.1529415    294.15478    663.79241   -8348.2474 
12300000    1.1529415    288.12329   -319.77922   -8423.9167 
12400000    1.1529415    300.89437     1169.661   -8436.0753 
12500000    1.1529415    300.52757   -485.94588   -8371.4898 
Loop time of 12949 on 12 procs for 2500000 steps with 1572 atoms

Performance: 33.362 ns/day, 0.719 hours/ns, 193.065 timesteps/s
93.0% CPU use with 12 MPI tasks x no OpenMP threads

MPI task timing breakdown:
Section |  min time  |  avg time  |  max time  |%varavg| %total
---------------------------------------------------------------
Pair    | 7052.4     | 7676.5     | 8293       | 493.8 | 59.28
Bond    | 33.715     | 34.963     | 36.277     |  15.3 |  0.27
Kspace  | 2985.6     | 3604.7     | 4231.8     | 722.8 | 27.84
Neigh   | 405.55     | 405.98     | 406.3      |   1.3 |  3.14
Comm    | 389.77     | 392.48     | 397.27     |  10.6 |  3.03
Output  | 0.84395    | 0.84697    | 0.84968    |   0.1 |  0.01
Modify  | 782.38     | 783.78     | 785.04     |   2.5 |  6.05
Other   |            | 49.81      |            |       |  0.38

Nlocal:    131 ave 145 max 116 min
Histogram: 2 0 1 2 0 2 2 1 0 2
Nghost:    4217.42 ave 4274 max 4126 min
Histogram: 1 0 0 2 1 2 1 0 3 2
Neighs:    47727.5 ave 54098 max 42858 min
Histogram: 3 0 3 0 0 2 1 1 0 2

Total # of neighbors = 572730
Ave neighs/atom = 364.332
Ave special neighs/atom = 1.9084
Neighbor list builds = 198576
Dangerous builds = 0
shell bash copy_files.sh dt_${tstep} 12.50Mstep
shell bash copy_files.sh dt_2 12.50Mstep

run ${Nrun3}
run 2500000
PPPM initialization ...
  extracting TIP4P info from pair style
  using 12-bit tables for long-range coulomb (../kspace.cpp:321)
  G vector (1/distance) = 0.310405
  grid = 24 24 24
  stencil order = 5
  estimated absolute RMS force accuracy = 0.00365851
  estimated relative force accuracy = 1.10175e-05
  using double precision FFTs
  3d grid and FFT values/proc = 5415 1152
Per MPI rank memory allocation (min/avg/max) = 14.31 | 14.31 | 14.32 Mbytes
Step Density Temp Press TotEng 
12500000    1.1529415    300.52757   -485.81318   -8371.4898 
12600000    1.1529415    305.13975     224.2232   -8371.0657 
12700000    1.1529415    291.98529   -521.66954   -8430.0936 
12800000    1.1529415    289.48254    1040.8258   -8390.7319 
12900000    1.1529415    289.51573   -444.09074   -8461.2763 
13000000    1.1529415    310.95024   -39.709915   -8396.7688 
13100000    1.1529415    307.11436   -231.26592   -8311.9244 
13200000    1.1529415    296.85735   -676.91967   -8345.3234 
13300000    1.1529415    311.88438    833.34141   -8394.1172 
13400000    1.1529415    290.52584   -270.69156   -8406.9986 
13500000    1.1529415    294.98237   -63.166244    -8402.151 
13600000    1.1529415    291.07211    833.85223    -8384.533 
13700000    1.1529415    299.22583    4.4635967   -8416.7946 
13800000    1.1529415    311.17726   -369.57567   -8356.0933 
13900000    1.1529415    293.72173    994.13927   -8454.9063 
14000000    1.1529415    300.29047   -536.69973   -8430.2751 
14100000    1.1529415      312.025   -1353.4547   -8382.1541 
14200000    1.1529415     293.0356   -112.70219   -8455.1203 
14300000    1.1529415    300.20827   -494.75936   -8395.2897 
14400000    1.1529415    301.57657    44.475506   -8401.0595 
14500000    1.1529415    311.46297     42.42667   -8354.7086 
14600000    1.1529415    294.01089    86.712621    -8421.705 
14700000    1.1529415    290.88327   -176.76931   -8432.6263 
14800000    1.1529415    289.66203    290.15237   -8388.8174 
14900000    1.1529415    288.64633    17.026002   -8415.8434 
15000000    1.1529415    299.91318   -655.22218   -8387.8524 
Loop time of 12934.3 on 12 procs for 2500000 steps with 1572 atoms

Performance: 33.400 ns/day, 0.719 hours/ns, 193.285 timesteps/s
93.2% CPU use with 12 MPI tasks x no OpenMP threads

MPI task timing breakdown:
Section |  min time  |  avg time  |  max time  |%varavg| %total
---------------------------------------------------------------
Pair    | 7051.4     | 7694.2     | 8268.9     | 442.2 | 59.49
Bond    | 33.765     | 35.132     | 36.564     |  17.1 |  0.27
Kspace  | 2995.5     | 3572.9     | 4218.2     | 650.8 | 27.62
Neigh   | 404.65     | 405.11     | 405.51     |   1.3 |  3.13
Comm    | 389.65     | 392.2      | 396.43     |  10.1 |  3.03
Output  | 0.84411    | 0.84706    | 0.85072    |   0.2 |  0.01
Modify  | 782.43     | 784.1      | 785.43     |   2.8 |  6.06
Other   |            | 49.74      |            |       |  0.38

Nlocal:    131 ave 143 max 108 min
Histogram: 1 0 0 0 1 1 4 1 1 3
Nghost:    4205 ave 4269 max 4137 min
Histogram: 1 1 2 1 0 2 2 1 0 2
Neighs:    47731.3 ave 53756 max 37954 min
Histogram: 1 0 0 2 0 2 3 0 2 2

Total # of neighbors = 572776
Ave neighs/atom = 364.361
Ave special neighs/atom = 1.9084
Neighbor list builds = 198592
Dangerous builds = 0
shell bash copy_files.sh dt_${tstep} 15.00Mstep
shell bash copy_files.sh dt_2 15.00Mstep

run ${Nrun3}
run 2500000
PPPM initialization ...
  extracting TIP4P info from pair style
  using 12-bit tables for long-range coulomb (../kspace.cpp:321)
  G vector (1/distance) = 0.310405
  grid = 24 24 24
  stencil order = 5
  estimated absolute RMS force accuracy = 0.00365851
  estimated relative force accuracy = 1.10175e-05
  using double precision FFTs
  3d grid and FFT values/proc = 5415 1152
Per MPI rank memory allocation (min/avg/max) = 14.31 | 14.31 | 14.32 Mbytes
Step Density Temp Press TotEng 
15000000    1.1529415    299.91318   -655.07569   -8387.8524 
15100000    1.1529415     301.1398   -240.74354   -8389.4142 
15200000    1.1529415    298.68532    274.23598   -8381.1465 
15300000    1.1529415    293.08519   -1267.7613   -8499.9025 
15400000    1.1529415    301.82411   -1135.8975   -8387.3014 
15500000    1.1529415    306.38847   -1229.5133   -8396.7583 
15600000    1.1529415    299.65915   -396.59202   -8429.7078 
15700000    1.1529415    302.00677    660.36068    -8442.418 
15800000    1.1529415    300.21245   -78.100784    -8443.244 
15900000    1.1529415    288.48286   -474.25711   -8441.5507 
16000000    1.1529415    295.49193   -40.298221   -8374.7911 
16100000    1.1529415    310.14051   -820.61967    -8324.924 
16200000    1.1529415    313.50375    821.95283   -8401.7601 
16300000    1.1529415    308.94387    104.31382   -8385.7354 
16400000    1.1529415    300.43802   -418.65682   -8457.2805 
16500000    1.1529415    312.61411    73.872226   -8378.1104 
16600000    1.1529415    288.75026   -16.845748   -8409.4327 
16700000    1.1529415      303.063    459.51757   -8407.0876 
16800000    1.1529415    292.19797    -1121.251   -8384.2428 
16900000    1.1529415    291.49214   -447.41179   -8436.9483 
17000000    1.1529415    305.82195    11.133235   -8383.1668 
17100000    1.1529415    297.17269   -818.74432   -8364.3284 
17200000    1.1529415    297.98198   -655.82739   -8323.2017 
17300000    1.1529415    288.67549    242.52872    -8414.937 
17400000    1.1529415    299.57839   -584.06592   -8393.5729 
17500000    1.1529415    298.14587    721.71922   -8377.5538 
Loop time of 12941.2 on 12 procs for 2500000 steps with 1572 atoms

Performance: 33.382 ns/day, 0.719 hours/ns, 193.182 timesteps/s
93.2% CPU use with 12 MPI tasks x no OpenMP threads

MPI task timing breakdown:
Section |  min time  |  avg time  |  max time  |%varavg| %total
---------------------------------------------------------------
Pair    | 7040       | 7680.8     | 8215.3     | 432.4 | 59.35
Bond    | 33.78      | 35.297     | 36.871     |  19.0 |  0.27
Kspace  | 3052.5     | 3590.5     | 4233.9     | 634.5 | 27.74
Neigh   | 404.68     | 405.1      | 405.48     |   1.4 |  3.13
Comm    | 389.62     | 392.33     | 397.26     |  10.6 |  3.03
Output  | 0.84511    | 0.84787    | 0.85196    |   0.2 |  0.01
Modify  | 785.2      | 786.6      | 788.04     |   2.6 |  6.08
Other   |            | 49.69      |            |       |  0.38

Nlocal:    131 ave 142 max 120 min
Histogram: 2 1 0 1 0 3 3 0 0 2
Nghost:    4202.67 ave 4287 max 4151 min
Histogram: 2 1 4 0 1 2 0 0 1 1
Neighs:    47704.8 ave 55279 max 41354 min
Histogram: 1 1 3 1 1 0 2 2 0 1

Total # of neighbors = 572457
Ave neighs/atom = 364.158
Ave special neighs/atom = 1.9084
Neighbor list builds = 198613
Dangerous builds = 0
shell bash copy_files.sh dt_${tstep} 17.50Mstep
shell bash copy_files.sh dt_2 17.50Mstep

run ${Nrun3}
run 2500000
PPPM initialization ...
  extracting TIP4P info from pair style
  using 12-bit tables for long-range coulomb (../kspace.cpp:321)
  G vector (1/distance) = 0.310405
  grid = 24 24 24
  stencil order = 5
  estimated absolute RMS force accuracy = 0.00365851
  estimated relative force accuracy = 1.10175e-05
  using double precision FFTs
  3d grid and FFT values/proc = 5415 1152
Per MPI rank memory allocation (min/avg/max) = 14.31 | 14.31 | 14.32 Mbytes
Step Density Temp Press TotEng 
17500000    1.1529415    298.14587    721.75314   -8377.5538 
17600000    1.1529415    315.82798   -344.21529   -8312.7745 
17700000    1.1529415     294.4338   -587.42208   -8360.8203 
17800000    1.1529415    296.32108   -85.512725   -8402.3907 
17900000    1.1529415    293.40104    -546.6442   -8420.1549 
18000000    1.1529415    284.47675     161.3832   -8437.7163 
18100000    1.1529415    308.15023    775.76359   -8379.7149 
18200000    1.1529415    303.57238     378.4645   -8383.7949 
18300000    1.1529415    291.58204    714.89727   -8408.6192 
18400000    1.1529415     290.4195    389.73319   -8425.6029 
18500000    1.1529415    302.40098    238.40991   -8312.3987 
18600000    1.1529415    305.68105   -91.659391   -8356.5756 
18700000    1.1529415    289.10816   -43.590758   -8399.7795 
18800000    1.1529415    301.70796   -693.73785   -8414.6907 
18900000    1.1529415    303.88132    534.94796   -8419.9739 
19000000    1.1529415    287.50553     559.8583   -8401.7391 
19100000    1.1529415    302.68871    282.94616   -8426.1105 
19200000    1.1529415    288.22215   -176.11296   -8382.6375 
19300000    1.1529415    283.83041   -463.71099    -8373.288 
19400000    1.1529415    298.96873    303.53219   -8399.1447 
19500000    1.1529415    293.79878   -224.43243   -8338.0125 
19600000    1.1529415    303.21323    1019.1794   -8385.2554 
19700000    1.1529415    307.05588    450.06681   -8365.9111 
19800000    1.1529415    292.62983   -212.37577     -8407.28 
19900000    1.1529415    291.93452   -746.03939   -8435.2657 
20000000    1.1529415    305.24357    775.93342   -8360.2762 
Loop time of 12943.6 on 12 procs for 2500000 steps with 1572 atoms

Performance: 33.375 ns/day, 0.719 hours/ns, 193.145 timesteps/s
93.1% CPU use with 12 MPI tasks x no OpenMP threads

MPI task timing breakdown:
Section |  min time  |  avg time  |  max time  |%varavg| %total
---------------------------------------------------------------
Pair    | 7140.9     | 7673.4     | 8214.6     | 423.4 | 59.28
Bond    | 33.885     | 35.352     | 36.807     |  18.8 |  0.27
Kspace  | 3056.7     | 3600.6     | 4135.5     | 620.2 | 27.82
Neigh   | 404.25     | 404.72     | 405.15     |   1.4 |  3.13
Comm    | 389.96     | 392.36     | 396.83     |   9.8 |  3.03
Output  | 0.84135    | 0.84526    | 0.84912    |   0.2 |  0.01
Modify  | 785.02     | 786.63     | 787.93     |   2.7 |  6.08
Other   |            | 49.82      |            |       |  0.38

Nlocal:    131 ave 140 max 124 min
Histogram: 3 1 0 3 0 0 2 0 2 1
Nghost:    4180.17 ave 4220 max 4136 min
Histogram: 2 0 1 1 2 1 2 0 1 2
Neighs:    47727.2 ave 51292 max 43392 min
Histogram: 2 0 0 1 4 1 0 0 0 4

Total # of neighbors = 572727
Ave neighs/atom = 364.33
Ave special neighs/atom = 1.9084
Neighbor list builds = 198472
Dangerous builds = 0
shell bash copy_files.sh dt_${tstep} 20.00Mstep
shell bash copy_files.sh dt_2 20.00Mstep

run ${Nrun4}
run 5000000
PPPM initialization ...
  extracting TIP4P info from pair style
  using 12-bit tables for long-range coulomb (../kspace.cpp:321)
  G vector (1/distance) = 0.310405
  grid = 24 24 24
  stencil order = 5
  estimated absolute RMS force accuracy = 0.00365851
  estimated relative force accuracy = 1.10175e-05
  using double precision FFTs
  3d grid and FFT values/proc = 5415 1152
Per MPI rank memory allocation (min/avg/max) = 14.31 | 14.32 | 14.32 Mbytes
Step Density Temp Press TotEng 
20000000    1.1529415    305.24357    776.69176   -8360.2762 
20100000    1.1529415     289.6002   -405.31699   -8402.5025 
20200000    1.1529415    296.69601    21.947614   -8406.1674 
20300000    1.1529415    288.87585   -238.09203   -8428.2963 
20400000    1.1529415    297.41986    403.05801   -8423.1551 
20500000    1.1529415     276.3979    578.90336   -8445.3728 
20600000    1.1529415    302.65219    494.43237   -8383.1436 
20700000    1.1529415    293.62736    765.48282   -8382.4845 
20800000    1.1529415    297.69844    259.76038   -8369.9983 
20900000    1.1529415    290.98624   -104.78092   -8371.6886 
21000000    1.1529415    289.60113   -1648.0583   -8410.7701 
21100000    1.1529415    311.11031   -159.36677   -8389.2924 
21200000    1.1529415    294.44566    -1547.736   -8381.7749 
21300000    1.1529415    287.92439   -24.727686   -8419.8547 
21400000    1.1529415    288.52819   -35.502122   -8414.0379 
21500000    1.1529415    297.91231    65.399096   -8412.9603 
21600000    1.1529415    292.08015   -199.80574   -8398.5268 
21700000    1.1529415    289.98184   -576.10094   -8370.3174 
21800000    1.1529415    293.54993   -1364.3438    -8398.211 
21900000    1.1529415    302.31424    560.87854    -8423.995 
22000000    1.1529415    305.90629   -268.97344   -8357.6877 
22100000    1.1529415    293.32321    215.65315   -8377.6948 
22200000    1.1529415    305.83579   -11.529909   -8322.3876 
22300000    1.1529415    306.24947     494.7696   -8409.7553 
22400000    1.1529415    308.69721   -439.20735   -8385.2774 
22500000    1.1529415    307.48569    745.95389   -8316.8732 
22600000    1.1529415    294.20952    311.38192   -8335.9256 
22700000    1.1529415    290.99407     321.0916    -8417.151 
22800000    1.1529415    298.30553    381.57862   -8409.0885 
22900000    1.1529415    290.05677   -641.91426   -8417.2439 
23000000    1.1529415    307.18095    288.53912   -8403.9952 
23100000    1.1529415    294.12803   -251.16771   -8400.6641 
23200000    1.1529415    292.92508    625.96006    -8361.896 
23300000    1.1529415    289.06083    329.65221   -8480.3723 
23400000    1.1529415    299.42348   -661.92521   -8352.3492 
23500000    1.1529415    292.95672   -487.64234   -8391.4656 
23600000    1.1529415    308.41009   -412.11147   -8412.5107 
23700000    1.1529415    299.07861    191.83792    -8455.039 
23800000    1.1529415    296.56962    27.365643   -8417.3709 
23900000    1.1529415     285.3104    363.79669   -8465.8359 
24000000    1.1529415    297.84951     1191.756    -8428.582 
24100000    1.1529415    297.90589    353.54035   -8414.4682 
24200000    1.1529415    301.42269   -135.37597   -8329.7553 
24300000    1.1529415    295.88591    208.81381   -8337.3507 
24400000    1.1529415    300.81267   -21.179709   -8391.9388 
24500000    1.1529415    302.88313    918.74197   -8342.8312 
24600000    1.1529415     298.3118   0.20582105   -8372.0771 
24700000    1.1529415    304.44849   -847.83354   -8356.1852 
24800000    1.1529415    288.83035   -261.53035   -8426.2517 
24900000    1.1529415    296.07735    1161.4298   -8391.3438 
25000000    1.1529415    316.47347    1028.6255   -8311.2205 
Loop time of 25751.4 on 12 procs for 5000000 steps with 1572 atoms

Performance: 33.552 ns/day, 0.715 hours/ns, 194.164 timesteps/s
93.3% CPU use with 12 MPI tasks x no OpenMP threads

MPI task timing breakdown:
Section |  min time  |  avg time  |  max time  |%varavg| %total
---------------------------------------------------------------
Pair    | 14343      | 15342      | 16323      | 565.3 | 59.58
Bond    | 67.622     | 70.593     | 73.537     |  26.1 |  0.27
Kspace  | 6082       | 7068.5     | 8069.9     | 835.6 | 27.45
Neigh   | 811.03     | 811.89     | 812.61     |   1.9 |  3.15
Comm    | 779.83     | 784.49     | 793.34     |  13.8 |  3.05
Output  | 1.6922     | 1.6979     | 1.704      |   0.2 |  0.01
Modify  | 1569.6     | 1572.7     | 1575.3     |   3.8 |  6.11
Other   |            | 99.8       |            |       |  0.39

Nlocal:    131 ave 138 max 117 min
Histogram: 1 0 0 0 0 2 3 1 4 1
Nghost:    4198.67 ave 4266 max 4152 min
Histogram: 4 0 0 2 2 2 0 0 0 2
Neighs:    47704.3 ave 51478 max 41099 min
Histogram: 1 0 1 0 2 0 3 2 0 3

Total # of neighbors = 572452
Ave neighs/atom = 364.155
Ave special neighs/atom = 1.9084
Neighbor list builds = 397314
Dangerous builds = 0
shell bash copy_files.sh dt_${tstep} 25.00Mstep
shell bash copy_files.sh dt_2 25.00Mstep

run ${Nrun4}
run 5000000
PPPM initialization ...
  extracting TIP4P info from pair style
  using 12-bit tables for long-range coulomb (../kspace.cpp:321)
  G vector (1/distance) = 0.310405
  grid = 24 24 24
  stencil order = 5
  estimated absolute RMS force accuracy = 0.00365851
  estimated relative force accuracy = 1.10175e-05
  using double precision FFTs
  3d grid and FFT values/proc = 5415 1152
Per MPI rank memory allocation (min/avg/max) = 14.31 | 14.32 | 14.32 Mbytes
Step Density Temp Press TotEng 
25000000    1.1529415    316.47347    1029.0395   -8311.2205 
25100000    1.1529415     295.1955    335.91699   -8383.1205 
25200000    1.1529415    290.10945   -103.50717   -8393.5318 
25300000    1.1529415    309.03567   -593.38737   -8352.9033 
25400000    1.1529415     295.3657    983.27668   -8410.1446 
25500000    1.1529415    292.29967   -566.67346   -8394.8406 
25600000    1.1529415    300.66753    280.78526     -8357.66 
25700000    1.1529415    291.83273   -1205.7059   -8408.6273 
25800000    1.1529415    297.63024     -574.129   -8364.2384 
25900000    1.1529415    302.90503   -344.40742   -8320.8864 
26000000    1.1529415    298.58454    122.02842   -8386.2157 
26100000    1.1529415    303.06162   -34.657907   -8340.9668 
26200000    1.1529415    307.53447    1066.0391   -8291.2251 
26300000    1.1529415    308.23364   -98.983224   -8354.5295 
26400000    1.1529415    284.26587    -758.7636    -8491.824 
26500000    1.1529415    293.51618   -780.61187   -8398.3993 
26600000    1.1529415    296.65636    -516.1413   -8353.0608 
26700000    1.1529415    307.59975    639.31888   -8327.8556 
26800000    1.1529415    297.69651    115.49131   -8363.6154 
26900000    1.1529415    301.51758   -331.47303   -8357.6391 
27000000    1.1529415    302.64422   -214.23018   -8370.2841 
27100000    1.1529415    284.86994    783.68175   -8303.6935 
27200000    1.1529415    294.04458    393.63077   -8365.2116 
27300000    1.1529415    293.60511     -560.491   -8370.5901 
27400000    1.1529415    296.52007   -332.04314    -8512.974 
27500000    1.1529415    300.37249   -99.835434    -8411.861 
27600000    1.1529415    302.67905    388.76249   -8374.3931 
27700000    1.1529415     311.2677   -680.01821   -8317.4047 
27800000    1.1529415    288.81013    454.97582    -8387.242 
27900000    1.1529415    311.63348   -307.85104   -8280.9248 
28000000    1.1529415    291.22135     654.0943   -8386.2785 
28100000    1.1529415     291.6281    203.40324   -8371.0923 
28200000    1.1529415     306.8485   -390.66481   -8355.5203 
28300000    1.1529415    295.89162   -458.98853   -8423.2944 
28400000    1.1529415    292.92086   -560.48609   -8386.4137 
28500000    1.1529415    293.41727    467.26004   -8465.4141 
28600000    1.1529415    307.75886   -1233.9814   -8378.1832 
28700000    1.1529415    298.01905   -481.75644   -8409.1712 
28800000    1.1529415     296.3283    687.09602   -8364.3993 
28900000    1.1529415    299.63687    80.479807   -8386.0086 
29000000    1.1529415    298.12802   -51.145922   -8364.7931 
29100000    1.1529415    300.42137    58.379633    -8426.036 
29200000    1.1529415    311.96727   -147.28658   -8361.0631 
29300000    1.1529415    301.42287    460.42409   -8338.3416 
29400000    1.1529415    302.54979    222.71937    -8350.523 
29500000    1.1529415    307.20693    493.44575   -8282.0302 
29600000    1.1529415    307.29564    50.527665   -8347.9309 
29700000    1.1529415     295.7502    981.83099   -8423.1437 
29800000    1.1529415    310.68579    578.25825   -8347.5034 
29900000    1.1529415    286.85525   -583.43588   -8429.5535 
30000000    1.1529415    280.17792    804.95938   -8468.4561 
Loop time of 25831.6 on 12 procs for 5000000 steps with 1572 atoms

Performance: 33.447 ns/day, 0.718 hours/ns, 193.562 timesteps/s
93.2% CPU use with 12 MPI tasks x no OpenMP threads

MPI task timing breakdown:
Section |  min time  |  avg time  |  max time  |%varavg| %total
---------------------------------------------------------------
Pair    | 14179      | 15347      | 16423      | 625.7 | 59.41
Bond    | 67.108     | 70.356     | 73.196     |  26.2 |  0.27
Kspace  | 6066.4     | 7148.1     | 8319.8     | 920.0 | 27.67
Neigh   | 810.53     | 811.45     | 812.31     |   2.0 |  3.14
Comm    | 780.16     | 784.56     | 793.24     |  13.9 |  3.04
Output  | 1.686      | 1.6942     | 1.7012     |   0.3 |  0.01
Modify  | 1565.8     | 1569.1     | 1571.7     |   3.8 |  6.07
Other   |            | 99.6       |            |       |  0.39

Nlocal:    131 ave 147 max 112 min
Histogram: 1 0 1 1 2 2 2 1 1 1
Nghost:    4168.5 ave 4186 max 4140 min
Histogram: 1 0 1 1 1 0 3 1 1 3
Neighs:    47715.9 ave 54922 max 40642 min
Histogram: 1 2 1 1 1 3 0 0 1 2

Total # of neighbors = 572591
Ave neighs/atom = 364.244
Ave special neighs/atom = 1.9084
Neighbor list builds = 397293
Dangerous builds = 0
shell bash copy_files.sh dt_${tstep} 30.00Mstep
shell bash copy_files.sh dt_2 30.00Mstep

run ${Nrun4}
run 5000000
PPPM initialization ...
  extracting TIP4P info from pair style
  using 12-bit tables for long-range coulomb (../kspace.cpp:321)
  G vector (1/distance) = 0.310405
  grid = 24 24 24
  stencil order = 5
  estimated absolute RMS force accuracy = 0.00365851
  estimated relative force accuracy = 1.10175e-05
  using double precision FFTs
  3d grid and FFT values/proc = 5415 1152
Per MPI rank memory allocation (min/avg/max) = 14.31 | 14.32 | 14.32 Mbytes
Step Density Temp Press TotEng 
30000000    1.1529415    280.17792    804.91324   -8468.4561 
30100000    1.1529415    303.55596    588.45115    -8385.307 
30200000    1.1529415    297.28029   -218.15614   -8433.9137 
30300000    1.1529415    292.76544    513.45212   -8437.7516 
30400000    1.1529415     300.4081    645.49551    -8411.526 
30500000    1.1529415    290.89498    680.43535   -8392.1394 
30600000    1.1529415     303.8017    -707.2351   -8422.1779 
30700000    1.1529415    295.22733    -708.3046   -8381.5381 
30800000    1.1529415     298.0042    189.91665   -8468.0971 
30900000    1.1529415    297.26887   -736.91162   -8415.7095 
31000000    1.1529415    305.96935    5.4223661   -8371.9657 
31100000    1.1529415      300.017   -99.348425   -8435.9999 
31200000    1.1529415    293.91332    44.598287   -8451.7585 
31300000    1.1529415    287.55958    583.45143   -8378.5122 
31400000    1.1529415    302.67391   -216.69956   -8369.9154 
31500000    1.1529415    299.35075   -110.55258   -8390.5689 
31600000    1.1529415    295.04863    415.08779   -8462.6474 
31700000    1.1529415    291.50603    152.88525   -8372.4535 
31800000    1.1529415    297.67787   -25.459529   -8405.9239 
31900000    1.1529415    297.95762   -405.27919    -8385.536 
32000000    1.1529415    307.07628   -285.04975   -8324.3732 
32100000    1.1529415    296.81611   -236.28736   -8380.5844 
32200000    1.1529415    290.08288    24.064966   -8431.6869 
32300000    1.1529415    311.86547   -791.27625   -8369.0194 
32400000    1.1529415    303.84068    1804.6605   -8355.1548 
32500000    1.1529415    294.81772    204.89638   -8428.1495 
32600000    1.1529415    302.33844   -274.22054   -8358.5987 
32700000    1.1529415    311.78353    151.54287   -8270.8284 
32800000    1.1529415    290.92487   -201.91622   -8424.6567 
32900000    1.1529415    295.89893    87.431725    -8392.755 
33000000    1.1529415    311.88414    97.017834   -8331.6879 
33100000    1.1529415    300.84177   -533.29761   -8346.3924 
33200000    1.1529415    288.39221    -787.4679      -8457.7 
33300000    1.1529415    291.69538    191.47465   -8424.9924 
33400000    1.1529415    313.70013   -574.29011   -8325.4165 
33500000    1.1529415    295.82108   -324.64685      -8388.2 
33600000    1.1529415    297.99895    289.51637   -8415.1863 
33700000    1.1529415    293.29482    108.19136   -8415.4759 
33800000    1.1529415    300.29048   -185.14424   -8405.4974 
33900000    1.1529415    300.75145    357.00468   -8420.6721 
34000000    1.1529415    279.15564   -296.54044   -8432.5366 
34100000    1.1529415    290.34104    765.03098   -8468.1076 
34200000    1.1529415    283.99617   -367.77498   -8434.6319 
34300000    1.1529415    306.43115   -120.52281   -8353.8841 
34400000    1.1529415    307.53868    778.60545   -8415.3921 
34500000    1.1529415    298.67837   -825.46666   -8395.0804 
34600000    1.1529415    280.37474   -281.85657   -8385.6391 
34700000    1.1529415    298.75385     529.7757   -8382.9663 
34800000    1.1529415    305.72461    13.417316    -8400.428 
34900000    1.1529415    298.89247    458.88739   -8415.3164 
35000000    1.1529415    297.77099   -1286.9058   -8419.6603 
Loop time of 25778.8 on 12 procs for 5000000 steps with 1572 atoms

Performance: 33.516 ns/day, 0.716 hours/ns, 193.958 timesteps/s
93.3% CPU use with 12 MPI tasks x no OpenMP threads

MPI task timing breakdown:
Section |  min time  |  avg time  |  max time  |%varavg| %total
---------------------------------------------------------------
Pair    | 14218      | 15344      | 16334      | 621.5 | 59.52
Bond    | 67.183     | 70.464     | 73.865     |  28.3 |  0.27
Kspace  | 6096.6     | 7093.4     | 8223.6     | 917.1 | 27.52
Neigh   | 808.95     | 809.9      | 810.74     |   2.0 |  3.14
Comm    | 779.65     | 784.45     | 792.34     |  13.6 |  3.04
Output  | 1.6857     | 1.6921     | 1.6984     |   0.2 |  0.01
Modify  | 1572.6     | 1575.5     | 1578.1     |   3.8 |  6.11
Other   |            | 99.9       |            |       |  0.39

Nlocal:    131 ave 139 max 122 min
Histogram: 2 1 0 1 0 1 3 2 1 1
Nghost:    4221.92 ave 4260 max 4175 min
Histogram: 2 0 0 3 0 1 2 0 2 2
Neighs:    47685.5 ave 53175 max 43877 min
Histogram: 3 0 4 1 0 1 0 0 1 2

Total # of neighbors = 572226
Ave neighs/atom = 364.011
Ave special neighs/atom = 1.9084
Neighbor list builds = 397117
Dangerous builds = 0
shell bash copy_files.sh dt_${tstep} 35.00Mstep
shell bash copy_files.sh dt_2 35.00Mstep

run ${Nrun4}
run 5000000
PPPM initialization ...
  extracting TIP4P info from pair style
  using 12-bit tables for long-range coulomb (../kspace.cpp:321)
  G vector (1/distance) = 0.310405
  grid = 24 24 24
  stencil order = 5
  estimated absolute RMS force accuracy = 0.00365851
  estimated relative force accuracy = 1.10175e-05
  using double precision FFTs
  3d grid and FFT values/proc = 5415 1152
Per MPI rank memory allocation (min/avg/max) = 14.31 | 14.32 | 14.32 Mbytes
Step Density Temp Press TotEng 
35000000    1.1529415    297.77099   -1287.1417   -8419.6603 
35100000    1.1529415    293.06227   -156.36647   -8382.5517 
35200000    1.1529415    294.89163   -375.74696   -8371.9514 
35300000    1.1529415    306.56127    -205.5737   -8351.4195 
35400000    1.1529415    290.51299   -642.76004   -8398.0577 
35500000    1.1529415    304.95025    685.52099   -8362.1053 
35600000    1.1529415    309.46363    694.20622   -8335.0656 
35700000    1.1529415     301.1285    372.64414    -8433.786 
35800000    1.1529415    294.03033   -881.08367   -8388.5143 
35900000    1.1529415    304.66638   -148.42724   -8370.0609 
36000000    1.1529415    288.56962    184.89717   -8385.0568 
36100000    1.1529415    284.29772   -471.63906   -8414.1713 
36200000    1.1529415    310.82735    209.33611   -8350.1004 
36300000    1.1529415    296.72835    396.60205   -8394.7908 
36400000    1.1529415    301.44542    863.35506     -8380.83 
36500000    1.1529415    293.65986   -512.97462   -8429.1289 
36600000    1.1529415    293.23648    77.059728   -8391.7155 
36700000    1.1529415    313.11745   -130.06641   -8395.4779 
36800000    1.1529415    311.23748   -637.28123   -8394.2113 
36900000    1.1529415    291.32892   -146.59698   -8464.2012 
37000000    1.1529415    314.26742   -723.22347   -8404.3861 
37100000    1.1529415    302.04991    2.2887861   -8320.8217 
37200000    1.1529415    302.46963    425.58425   -8381.0555 
37300000    1.1529415    304.21828    260.41773   -8384.9738 
37400000    1.1529415    274.89766    85.924031   -8399.5738 
37500000    1.1529415    304.88274    359.83441   -8318.4706 
37600000    1.1529415    316.63662   -41.735145   -8291.1438 
37700000    1.1529415    287.23741    247.89736   -8365.9886 
37800000    1.1529415    308.34344    657.23293   -8388.0964 
37900000    1.1529415    293.79807    170.92967   -8493.9915 
38000000    1.1529415    300.74981    44.800964   -8368.7073 
38100000    1.1529415    295.44563    391.24244   -8403.3645 
38200000    1.1529415    294.08992    223.70695   -8393.5607 
38300000    1.1529415    296.42088    747.40881   -8370.5033 
38400000    1.1529415    287.61594   -51.143604   -8385.6185 
38500000    1.1529415    284.84945    -760.4356    -8428.346 
38600000    1.1529415    300.92521   -1054.0822   -8352.3952 
38700000    1.1529415    290.95358   -359.41654   -8467.0539 
38800000    1.1529415    302.36544    718.16936   -8412.7027 
38900000    1.1529415    288.13724   -123.19487    -8438.745 
39000000    1.1529415    299.28456    324.50852   -8444.2858 
39100000    1.1529415    300.71737    193.52039   -8351.8887 
39200000    1.1529415    297.66805    65.133931   -8427.9271 
39300000    1.1529415    306.70156   -127.63695   -8408.0235 
39400000    1.1529415    295.30159    264.42359    -8410.433 
39500000    1.1529415    293.84197    -137.1562   -8382.8098 
39600000    1.1529415      298.695   -60.498358   -8391.9794 
39700000    1.1529415    297.81978   -183.57665   -8371.8271 
39800000    1.1529415    295.02753    163.68075   -8362.3036 
39900000    1.1529415    288.13251    149.75227   -8423.9723 
40000000    1.1529415    298.62072   -387.24228   -8442.5741 
Loop time of 25954.5 on 12 procs for 5000000 steps with 1572 atoms

Performance: 33.289 ns/day, 0.721 hours/ns, 192.645 timesteps/s
93.1% CPU use with 12 MPI tasks x no OpenMP threads

MPI task timing breakdown:
Section |  min time  |  avg time  |  max time  |%varavg| %total
---------------------------------------------------------------
Pair    | 14158      | 15388      | 16367      | 608.0 | 59.29
Bond    | 67.727     | 70.471     | 73.078     |  23.4 |  0.27
Kspace  | 6245.5     | 7230.3     | 8465.1     | 890.1 | 27.86
Neigh   | 810.73     | 811.61     | 812.42     |   2.0 |  3.13
Comm    | 779.5      | 784.63     | 792.96     |  13.9 |  3.02
Output  | 1.6937     | 1.699      | 1.7064     |   0.2 |  0.01
Modify  | 1564.8     | 1567.7     | 1570.3     |   3.6 |  6.04
Other   |            | 99.65      |            |       |  0.38

Nlocal:    131 ave 138 max 121 min
Histogram: 2 1 1 0 0 2 0 1 0 5
Nghost:    4191.67 ave 4281 max 4110 min
Histogram: 2 1 1 2 0 1 1 2 1 1
Neighs:    47689.1 ave 53120 max 41707 min
Histogram: 2 2 1 0 0 1 1 2 0 3

Total # of neighbors = 572269
Ave neighs/atom = 364.039
Ave special neighs/atom = 1.9084
Neighbor list builds = 397212
Dangerous builds = 0
shell bash copy_files.sh dt_${tstep} 40.00Mstep
shell bash copy_files.sh dt_2 40.00Mstep

run ${Nrun4}
run 5000000
PPPM initialization ...
  extracting TIP4P info from pair style
  using 12-bit tables for long-range coulomb (../kspace.cpp:321)
  G vector (1/distance) = 0.310405
  grid = 24 24 24
  stencil order = 5
  estimated absolute RMS force accuracy = 0.00365851
  estimated relative force accuracy = 1.10175e-05
  using double precision FFTs
  3d grid and FFT values/proc = 5415 1152
Per MPI rank memory allocation (min/avg/max) = 14.31 | 14.32 | 14.32 Mbytes
Step Density Temp Press TotEng 
40000000    1.1529415    298.62072    -387.7561   -8442.5741 
40100000    1.1529415    294.39188   -432.46376   -8357.9781 
40200000    1.1529415    290.90372   -584.96238   -8441.7096 
40300000    1.1529415    296.11136   -405.12436   -8474.4632 
40400000    1.1529415    308.82216    348.36684   -8403.7342 
40500000    1.1529415    302.54382   -355.39826   -8385.1781 
40600000    1.1529415    299.00105    111.92188   -8407.1134 
40700000    1.1529415    296.72137    43.955739   -8401.2258 
40800000    1.1529415    288.63896   -1259.3512   -8423.7023 
40900000    1.1529415    304.77584    523.08447   -8382.2374 
41000000    1.1529415    300.27197    499.37073    -8441.791 
41100000    1.1529415    299.05618   -308.45278   -8403.2181 
41200000    1.1529415    301.44007   -397.69262   -8417.1051 
41300000    1.1529415    294.74457    306.96817   -8402.1495 
41400000    1.1529415     301.1294   -72.615577   -8360.3704 
41500000    1.1529415    282.35619    12.212259   -8367.5854 
41600000    1.1529415     304.2598   -237.40943   -8407.7729 
41700000    1.1529415    302.62307   -191.33805   -8320.5057 
41800000    1.1529415    295.72154   -542.24603   -8374.2821 
41900000    1.1529415    295.98517    283.19141   -8358.5625 
42000000    1.1529415    301.70014   -288.05515   -8444.2669 
42100000    1.1529415    291.12054    1057.3082    -8354.179 
42200000    1.1529415    284.34956   -576.13647   -8439.8424 
42300000    1.1529415    303.82185     173.0259   -8392.1909 
42400000    1.1529415    292.33351    66.005427   -8348.1313 
42500000    1.1529415    286.85754   -898.04827   -8397.2551 
42600000    1.1529415    290.48856    93.360179   -8440.2861 
42700000    1.1529415    302.20854   -173.53583   -8415.6362 
42800000    1.1529415    307.36286    -769.4958    -8396.362 
42900000    1.1529415    284.96156    447.40546   -8433.9508 
43000000    1.1529415    286.03143    481.09478   -8436.4119 
43100000    1.1529415     293.5163    80.959702   -8455.8496 
43200000    1.1529415    289.38857   -460.36219   -8412.1204 
43300000    1.1529415    296.45941   -195.51309   -8377.0511 
43400000    1.1529415    290.22045   -503.55168   -8347.3024 
43500000    1.1529415    299.89823   -179.81076   -8399.1503 
43600000    1.1529415    292.20223   -256.18487   -8368.6538 
43700000    1.1529415    291.39142   -1139.8708   -8401.6541 
43800000    1.1529415    306.96725    334.17905   -8330.8138 
43900000    1.1529415    296.80339    237.36343   -8422.0448 
44000000    1.1529415    293.84092   -529.09404   -8387.1664 
44100000    1.1529415    298.54004    279.25586    -8362.062 
44200000    1.1529415    290.18487    781.68465   -8441.1906 
44300000    1.1529415    299.31662    38.105548    -8415.874 
44400000    1.1529415    299.83267   -416.38171   -8459.0975 
44500000    1.1529415    300.03727   -144.36986   -8454.3003 
44600000    1.1529415    294.55955    -456.9097   -8420.3048 
44700000    1.1529415    292.00655    10.566945   -8310.3182 
44800000    1.1529415    289.71137    7.5908527   -8339.0245 
44900000    1.1529415    306.63213   -1000.2619   -8378.6889 
45000000    1.1529415    294.58157    877.60584     -8403.35 
Loop time of 25898.3 on 12 procs for 5000000 steps with 1572 atoms

Performance: 33.361 ns/day, 0.719 hours/ns, 193.063 timesteps/s
93.1% CPU use with 12 MPI tasks x no OpenMP threads

MPI task timing breakdown:
Section |  min time  |  avg time  |  max time  |%varavg| %total
---------------------------------------------------------------
Pair    | 14141      | 15364      | 16387      | 610.9 | 59.32
Bond    | 67.705     | 70.465     | 73.441     |  24.9 |  0.27
Kspace  | 6163.2     | 7193.4     | 8421.3     | 895.8 | 27.78
Neigh   | 810.76     | 811.61     | 812.31     |   1.9 |  3.13
Comm    | 780.43     | 785.51     | 795.24     |  14.8 |  3.03
Output  | 1.6802     | 1.6934     | 1.7009     |   0.3 |  0.01
Modify  | 1570       | 1571.9     | 1573.8     |   2.7 |  6.07
Other   |            | 100        |            |       |  0.39

Nlocal:    131 ave 141 max 114 min
Histogram: 1 1 0 1 2 1 0 0 2 4
Nghost:    4202.25 ave 4248 max 4157 min
Histogram: 1 0 2 4 0 0 1 0 2 2
Neighs:    47706.8 ave 55337 max 39211 min
Histogram: 1 0 1 1 4 1 1 0 1 2

Total # of neighbors = 572482
Ave neighs/atom = 364.174
Ave special neighs/atom = 1.9084
Neighbor list builds = 397284
Dangerous builds = 0
shell bash copy_files.sh dt_${tstep} 45.00Mstep
shell bash copy_files.sh dt_2 45.00Mstep

run ${Nrun4}
run 5000000
PPPM initialization ...
  extracting TIP4P info from pair style
  using 12-bit tables for long-range coulomb (../kspace.cpp:321)
  G vector (1/distance) = 0.310405
  grid = 24 24 24
  stencil order = 5
  estimated absolute RMS force accuracy = 0.00365851
  estimated relative force accuracy = 1.10175e-05
  using double precision FFTs
  3d grid and FFT values/proc = 5415 1152
Per MPI rank memory allocation (min/avg/max) = 14.31 | 14.32 | 14.32 Mbytes
Step Density Temp Press TotEng 
45000000    1.1529415    294.58157    877.52717     -8403.35 
45100000    1.1529415    299.07532   -192.19289   -8412.7006 
45200000    1.1529415    297.54937   -213.82485   -8419.6325 
45300000    1.1529415    310.45152    553.39031   -8327.0686 
45400000    1.1529415    293.52285   -1601.3731   -8419.5091 
45500000    1.1529415    282.82314    83.654396   -8400.2346 
45600000    1.1529415    301.00957    586.74634   -8335.2541 
45700000    1.1529415    308.38539    -594.7277    -8346.967 
45800000    1.1529415    293.14964    493.54048   -8426.8159 
45900000    1.1529415     296.9457    249.23005   -8408.5499 
46000000    1.1529415    286.95569   -335.31688   -8472.0991 
46100000    1.1529415    301.28354    47.941739   -8337.2572 
46200000    1.1529415    300.91477    414.13717   -8326.4902 
46300000    1.1529415    309.22467    14.555054   -8367.3619 
46400000    1.1529415    295.32598    425.57437   -8397.9582 
46500000    1.1529415    307.18565    962.04279   -8323.5968 
46600000    1.1529415    301.25738   -564.80984   -8411.2838 
46700000    1.1529415    293.06129   -30.727716   -8432.5049 
46800000    1.1529415    302.26705   -740.82506   -8334.7374 
46900000    1.1529415    300.97225   -112.63528   -8424.1618 
47000000    1.1529415    293.33045   -417.01546   -8477.6068 
47100000    1.1529415    305.20697   -664.04859   -8313.5577 
47200000    1.1529415    303.62147    138.06696   -8359.7679 
47300000    1.1529415     299.9001    437.77702   -8407.5831 
47400000    1.1529415    295.62498    517.03194   -8390.4505 
47500000    1.1529415    300.31292    314.28829   -8449.0517 
47600000    1.1529415    297.69054   -134.41069   -8370.0385 
47700000    1.1529415    307.88152    372.81535   -8364.9669 
47800000    1.1529415    302.44387    230.86779   -8361.9957 
47900000    1.1529415    294.85768    -915.7339   -8394.9087 
48000000    1.1529415    300.43306    173.53748   -8372.0846 
48100000    1.1529415    300.39685   -380.21101   -8387.4416 
48200000    1.1529415    308.50429    246.66966   -8322.1448 
48300000    1.1529415    287.32268   -161.06145   -8432.5241 
48400000    1.1529415    288.63058   -193.90259   -8456.9238 
48500000    1.1529415    299.03255    429.14341   -8430.1828 
48600000    1.1529415    303.63005    43.720297   -8342.9633 
48700000    1.1529415     299.5419   -73.503035   -8411.1367 
48800000    1.1529415    292.44804    1220.5415   -8380.4636 
48900000    1.1529415    281.81926    262.17426   -8470.6758 
49000000    1.1529415    294.68077    15.058873   -8362.7069 
49100000    1.1529415    307.02964    144.90428   -8342.6766 
49200000    1.1529415    295.44881   -424.95904   -8424.0883 
49300000    1.1529415    293.64613   -683.23042   -8474.7007 
49400000    1.1529415    294.29143    304.36042   -8388.0608 
49500000    1.1529415    309.42414    493.25534    -8336.033 
49600000    1.1529415    294.75179   -585.52792   -8407.5936 
49700000    1.1529415    295.30826   -506.37284   -8417.6131 
49800000    1.1529415    298.27698    482.41686   -8388.2146 
49900000    1.1529415    307.13564    541.70462   -8342.3641 
50000000    1.1529415    305.13309   -664.29663   -8384.1123 
Loop time of 25815.7 on 12 procs for 5000000 steps with 1572 atoms

Performance: 33.468 ns/day, 0.717 hours/ns, 193.681 timesteps/s
93.3% CPU use with 12 MPI tasks x no OpenMP threads

MPI task timing breakdown:
Section |  min time  |  avg time  |  max time  |%varavg| %total
---------------------------------------------------------------
Pair    | 14182      | 15333      | 16241      | 567.4 | 59.39
Bond    | 67.838     | 70.815     | 73.961     |  26.2 |  0.27
Kspace  | 6234.4     | 7147.4     | 8302.9     | 834.0 | 27.69
Neigh   | 808.7      | 809.58     | 810.34     |   1.9 |  3.14
Comm    | 779.63     | 784.69     | 793.33     |  13.9 |  3.04
Output  | 1.6859     | 1.6922     | 1.6997     |   0.2 |  0.01
Modify  | 1566.2     | 1569.3     | 1571.7     |   3.7 |  6.08
Other   |            | 99.55      |            |       |  0.39

Nlocal:    131 ave 143 max 122 min
Histogram: 3 0 2 0 3 1 0 1 0 2
Nghost:    4208.5 ave 4237 max 4176 min
Histogram: 2 1 1 0 1 1 1 1 2 2
Neighs:    47725.4 ave 51916 max 43841 min
Histogram: 1 0 3 1 0 4 1 0 1 1

Total # of neighbors = 572705
Ave neighs/atom = 364.316
Ave special neighs/atom = 1.9084
Neighbor list builds = 397107
Dangerous builds = 0
